Ni  H                                   
   1.00000000000000     
     8.6222037999999994    0.0000000000000000    0.0000000000000000
     0.0000000000000000    9.9560633000000003    0.0000000000000000
     0.0000000000000000    0.0000000000000000   24.1936378000000012
   Ni   H 
    80     1
Selective dynamics
Direct
  0.3331490488050990  0.4999999985235135  0.3349913441321329   T   T   T
  0.6666666870799034  0.4999999985235135  0.1680006180696338   F   F   F
  0.6666666870799034  0.0000000000000000  0.1680006180696338   F   F   F
  0.3333689042722767  0.0000000000000000  0.3345997595406529   T   T   T
  0.1665111541716565  0.0000000000000000  0.4175970475723134   T   T   T
  0.4999432086016096  0.4999999985235135  0.2515349916293251   T   T   T
  0.8333333725998742  0.4999999985235135  0.0840002893787428   F   F   F
  0.1643155924614587  0.4999999985235135  0.4174754616576166   T   T   T
  0.8333333725998742  0.0000000000000000  0.0840002893787428   F   F   F
  0.5000101291301957  0.0000000000000000  0.2512885212267483   T   T   T
  0.9167463643697218  0.1246770591715536  0.4175889575718277   T   T   T
  0.2499905095723485  0.6251247977899285  0.2513858742081295   T   T   T
  0.5833333718199114  0.6249999861543927  0.0840002893787428   F   F   F
  0.9161021431238665  0.6254282788460600  0.4175186452394019   T   T   T
  0.5833333718199114  0.1249999996308802  0.0840002893787428   F   F   F
  0.2499618803835864  0.1248332245281805  0.2512419290567810   T   T   T
  0.9167463643697218  0.8753229498754743  0.4175889575718277   T   T   T
  0.2499905095723485  0.3748751992570987  0.2513858742081295   T   T   T
  0.5833333718199114  0.3750000108926344  0.0840002893787428   F   F   F
  0.9161021431238665  0.3745717182009670  0.4175186452394019   T   T   T
  0.5833333718199114  0.8750000094161479  0.0840002893787428   F   F   F
  0.2499618803835864  0.8751667845188472  0.2512419290567810   T   T   T
  0.6663432376440729  0.0000000000000000  0.4175499332767882   T   T   T
  0.0001564853702411  0.4999999985235135  0.2512302355608270   T   T   T
  0.3333333710399486  0.4999999985235135  0.0840002893787428   F   F   F
  0.6675601304047184  0.4999999985235135  0.4190687395575199   T   T   T
  0.3333333710399486  0.0000000000000000  0.0840002893787428   F   F   F
  0.0000193215248136  0.0000000000000000  0.2513229755248107   T   T   T
  0.8333623175316751  0.0000000000000000  0.3346425430007343   T   T   T
  0.1666666305199769  0.4999999985235135  0.1680006377257044   F   F   F
  0.8323760337763734  0.4999999985235135  0.3350537790846292   T   T   T
  0.1666666305199769  0.0000000000000000  0.1680006377257044   F   F   F
  0.5831836584882707  0.1250065580910079  0.3346135678084977   T   T   T
  0.9166666328598652  0.6249999861543927  0.1680006377257044   F   F   F
  0.5832005522699791  0.6249896466863277  0.3349941106482098   T   T   T
  0.9166666328598652  0.1249999996308802  0.1680006377257044   F   F   F
  0.5831836584882707  0.8749934509560202  0.3346135678084977   T   T   T
  0.9166666328598652  0.3750000108926344  0.1680006377257044   F   F   F
  0.5832005522699791  0.3750103503606993  0.3349941106482098   T   T   T
  0.9166666328598652  0.8750000094161479  0.1680006377257044   F   F   F
  0.1662937652746714  0.7500909184437062  0.4175207021522115   T   T   T
  0.4997944541518818  0.2500567331294570  0.2513827223249691   T   T   T
  0.8333333725998742  0.2499999992617532  0.0840002893787428   F   F   F
  0.1662937652746714  0.2499091026033158  0.4175207021522115   T   T   T
  0.8333333725998742  0.7500000217852687  0.0840002893787428   F   F   F
  0.4997944541518818  0.7499432879175648  0.2513827223249691   T   T   T
  0.3336030936921488  0.7493481968444355  0.3350201934097474   T   T   T
  0.6666666870799034  0.2499999992617532  0.1680006377257044   F   F   F
  0.3336030936921488  0.2506518242025860  0.3350201934097474   T   T   T
  0.6666666870799034  0.7500000217852687  0.1680006377257044   F   F   F
  0.0836316886385714  0.8748352672121726  0.3346310327905347   T   T   T
  0.4166666862999406  0.3750000108926344  0.1680006377257044   F   F   F
  0.0828435834767853  0.3750880738822105  0.3345969574977580   T   T   T
  0.4166666862999406  0.8750000094161479  0.1680006377257044   F   F   F
  0.0828435834767853  0.6249119231648163  0.3345969574977580   T   T   T
  0.4166666862999406  0.1249999996308802  0.1680006377257044   F   F   F
  0.0836316886385714  0.1251647418348554  0.3346310327905347   T   T   T
  0.4166666862999406  0.6249999861543927  0.1680006377257044   F   F   F
  0.8332694368814899  0.7501509783775820  0.3346199913626644   T   T   T
  0.1666666305199769  0.2499999992617532  0.1680006377257044   F   F   F
  0.8332694368814899  0.2498490426694400  0.3346199913626644   T   T   T
  0.1666666305199769  0.7500000217852687  0.1680006377257044   F   F   F
 -0.0000381054482399  0.7500070879189483  0.2512902093354349   T   T   T
  0.3333333440399500  0.2499999992617532  0.0840003483469616   F   F   F
  0.6673160237531921  0.2485055689166623  0.4174979954692127   T   T   T
 -0.0000381054482399  0.2499929331280737  0.2512902093354349   T   T   T
  0.6673160237531921  0.7514944521303599  0.4174979954692127   T   T   T
  0.3333333440399500  0.7500000217852687  0.0840003483469616   F   F   F
  0.7499352301130271  0.8749864134419442  0.2512841700541231   T   T   T
  0.0833333702599859  0.3750000108926344  0.0840003483469616   F   F   F
  0.4155911593047074  0.3740058388100233  0.4190912173295783   T   T   T
  0.7500343544724936  0.3751409479006396  0.2513894426549008   T   T   T
  0.4163737494113209  0.8750796974011392  0.4175145997960883   T   T   T
  0.0833333702599859  0.8750000094161479  0.0840003483469616   F   F   F
  0.7500343544724936  0.6248590491463876  0.2513894426549008   T   T   T
  0.0833333702599859  0.1249999996308802  0.0840003483469616   F   F   F
  0.4163737494113209  0.1249203116458887  0.4175145997960883   T   T   T
  0.7499352301130271  0.1250135956050838  0.2512841700541231   T   T   T
  0.4155911593047074  0.6259941582370040  0.4190912173295783   T   T   T
  0.0833333702599859  0.6249999861543927  0.0840003483469616   F   F   F
  0.4997587375547323  0.4999999985235135  0.4559540486170420   T   T   T
 
  0.00000000E+00  0.00000000E+00  0.00000000E+00
  0.00000000E+00  0.00000000E+00  0.00000000E+00
  0.00000000E+00  0.00000000E+00  0.00000000E+00
  0.00000000E+00  0.00000000E+00  0.00000000E+00
  0.00000000E+00  0.00000000E+00  0.00000000E+00
  0.00000000E+00  0.00000000E+00  0.00000000E+00
  0.00000000E+00  0.00000000E+00  0.00000000E+00
  0.00000000E+00  0.00000000E+00  0.00000000E+00
  0.00000000E+00  0.00000000E+00  0.00000000E+00
  0.00000000E+00  0.00000000E+00  0.00000000E+00
  0.00000000E+00  0.00000000E+00  0.00000000E+00
  0.00000000E+00  0.00000000E+00  0.00000000E+00
  0.00000000E+00  0.00000000E+00  0.00000000E+00
  0.00000000E+00  0.00000000E+00  0.00000000E+00
  0.00000000E+00  0.00000000E+00  0.00000000E+00
  0.00000000E+00  0.00000000E+00  0.00000000E+00
  0.00000000E+00  0.00000000E+00  0.00000000E+00
  0.00000000E+00  0.00000000E+00  0.00000000E+00
  0.00000000E+00  0.00000000E+00  0.00000000E+00
  0.00000000E+00  0.00000000E+00  0.00000000E+00
  0.00000000E+00  0.00000000E+00  0.00000000E+00
  0.00000000E+00  0.00000000E+00  0.00000000E+00
  0.00000000E+00  0.00000000E+00  0.00000000E+00
  0.00000000E+00  0.00000000E+00  0.00000000E+00
  0.00000000E+00  0.00000000E+00  0.00000000E+00
  0.00000000E+00  0.00000000E+00  0.00000000E+00
  0.00000000E+00  0.00000000E+00  0.00000000E+00
  0.00000000E+00  0.00000000E+00  0.00000000E+00
  0.00000000E+00  0.00000000E+00  0.00000000E+00
  0.00000000E+00  0.00000000E+00  0.00000000E+00
  0.00000000E+00  0.00000000E+00  0.00000000E+00
  0.00000000E+00  0.00000000E+00  0.00000000E+00
  0.00000000E+00  0.00000000E+00  0.00000000E+00
  0.00000000E+00  0.00000000E+00  0.00000000E+00
  0.00000000E+00  0.00000000E+00  0.00000000E+00
  0.00000000E+00  0.00000000E+00  0.00000000E+00
  0.00000000E+00  0.00000000E+00  0.00000000E+00
  0.00000000E+00  0.00000000E+00  0.00000000E+00
  0.00000000E+00  0.00000000E+00  0.00000000E+00
  0.00000000E+00  0.00000000E+00  0.00000000E+00
  0.00000000E+00  0.00000000E+00  0.00000000E+00
  0.00000000E+00  0.00000000E+00  0.00000000E+00
  0.00000000E+00  0.00000000E+00  0.00000000E+00
  0.00000000E+00  0.00000000E+00  0.00000000E+00
  0.00000000E+00  0.00000000E+00  0.00000000E+00
  0.00000000E+00  0.00000000E+00  0.00000000E+00
  0.00000000E+00  0.00000000E+00  0.00000000E+00
  0.00000000E+00  0.00000000E+00  0.00000000E+00
  0.00000000E+00  0.00000000E+00  0.00000000E+00
  0.00000000E+00  0.00000000E+00  0.00000000E+00
  0.00000000E+00  0.00000000E+00  0.00000000E+00
  0.00000000E+00  0.00000000E+00  0.00000000E+00
  0.00000000E+00  0.00000000E+00  0.00000000E+00
  0.00000000E+00  0.00000000E+00  0.00000000E+00
  0.00000000E+00  0.00000000E+00  0.00000000E+00
  0.00000000E+00  0.00000000E+00  0.00000000E+00
  0.00000000E+00  0.00000000E+00  0.00000000E+00
  0.00000000E+00  0.00000000E+00  0.00000000E+00
  0.00000000E+00  0.00000000E+00  0.00000000E+00
  0.00000000E+00  0.00000000E+00  0.00000000E+00
  0.00000000E+00  0.00000000E+00  0.00000000E+00
  0.00000000E+00  0.00000000E+00  0.00000000E+00
  0.00000000E+00  0.00000000E+00  0.00000000E+00
  0.00000000E+00  0.00000000E+00  0.00000000E+00
  0.00000000E+00  0.00000000E+00  0.00000000E+00
  0.00000000E+00  0.00000000E+00  0.00000000E+00
  0.00000000E+00  0.00000000E+00  0.00000000E+00
  0.00000000E+00  0.00000000E+00  0.00000000E+00
  0.00000000E+00  0.00000000E+00  0.00000000E+00
  0.00000000E+00  0.00000000E+00  0.00000000E+00
  0.00000000E+00  0.00000000E+00  0.00000000E+00
  0.00000000E+00  0.00000000E+00  0.00000000E+00
  0.00000000E+00  0.00000000E+00  0.00000000E+00
  0.00000000E+00  0.00000000E+00  0.00000000E+00
  0.00000000E+00  0.00000000E+00  0.00000000E+00
  0.00000000E+00  0.00000000E+00  0.00000000E+00
  0.00000000E+00  0.00000000E+00  0.00000000E+00
  0.00000000E+00  0.00000000E+00  0.00000000E+00
  0.00000000E+00  0.00000000E+00  0.00000000E+00
  0.00000000E+00  0.00000000E+00  0.00000000E+00
  0.00000000E+00  0.00000000E+00  0.00000000E+00
