Ni  H                                   
   1.00000000000000     
     8.6222037999999994    0.0000000000000000    0.0000000000000000
     0.0000000000000000    9.9560633000000003    0.0000000000000000
     0.0000000000000000    0.0000000000000000   24.1936378000000012
   Ni   H 
    80     1
Cartesian
2.87247      4.97803      8.10468         0.001315     -0.000000      0.004546
5.74814      4.97803      4.06455        -0.012979     -0.000000     -0.122958
5.74814      0.00000      4.06455         0.001920     -0.000000     -0.142750
2.87389      0.00000      8.09688         0.000101     -0.000000     -0.004528
1.43562      0.00000     10.10558         0.000722     -0.000000     -0.004536
4.31083      4.97803      6.08554        -0.002029     -0.000000      0.000084
7.18517      4.97803      2.03227         0.002381     -0.000000      0.133809
1.41674      4.97803     10.10176         0.003437     -0.000000     -0.002405
7.18517      0.00000      2.03227         0.000421     -0.000000      0.139204
4.31075      0.00000      6.08000         0.002652     -0.000000      0.002121
7.90429      1.24116     10.10580         0.001508      0.000642     -0.005143
2.15547      6.22368      6.08217         0.000426      0.003279      0.001628
5.02962      6.22254      2.03227         0.002776      0.000574      0.136348
7.89953      6.22667     10.10320        -0.002889      0.000250     -0.003287
5.02962      1.24451      2.03227         0.001964     -0.000689      0.137809
2.15482      1.24263      6.07921         0.002293      0.000842      0.000186
7.90429      8.71490     10.10580         0.001508     -0.000642     -0.005143
2.15547      3.73239      6.08217         0.000426     -0.003279      0.001628
5.02962      3.73352      2.03227         0.002776     -0.000574      0.136348
7.89953      3.72940     10.10320        -0.002889     -0.000250     -0.003287
5.02962      8.71156      2.03227         0.001964      0.000689      0.137809
2.15482      8.71344      6.07921         0.002293     -0.000842      0.000186
5.74520      0.00000     10.10409         0.002473     -0.000000     -0.004405
0.00199      4.97803      6.07922        -0.005253     -0.000000     -0.001100
2.87407      4.97803      2.03227         0.000228     -0.000000      0.148261
5.75562      4.97803     10.13965        -0.000563     -0.000000     -0.000795
2.87407      0.00000      2.03227         0.001728     -0.000000      0.138735
0.00000      0.00000      6.08111         0.002124     -0.000000      0.003585
7.18561      0.00000      8.09854        -0.000994     -0.000000     -0.004523
1.43703      4.97803      4.06455         0.006423     -0.000000     -0.149470
7.17707      4.97803      8.10724         0.002224     -0.000000      0.001100
1.43703      0.00000      4.06455        -0.005347     -0.000000     -0.173433
5.02833      1.24455      8.09646         0.002944     -0.000301     -0.001258
7.90369      6.22254      4.06455        -0.002662     -0.000208     -0.129468
5.02850      6.22270      8.10495        -0.000162     -0.001713      0.003234
7.90369      1.24451      4.06455        -0.006826     -0.001350     -0.140959
5.02833      8.71152      8.09646         0.002944      0.000301     -0.001258
7.90369      3.73352      4.06455        -0.002662      0.000208     -0.129468
5.02850      3.73336      8.10495        -0.000162      0.001713      0.003234
7.90369      8.71156      4.06455        -0.006826      0.001350     -0.140959
1.43442      7.46784     10.10320        -0.001019      0.000742     -0.002755
4.30927      2.48923      6.08232         0.000289      0.000283     -0.001918
7.18517      2.48902      2.03227         0.003342      0.000444      0.136416
1.43442      2.48822     10.10320        -0.001019     -0.000742     -0.002755
7.18517      7.46705      2.03227         0.003342     -0.000444      0.136416
4.30927      7.46684      6.08232         0.000289     -0.000283     -0.001918
2.87633      7.46091      8.10619        -0.000707     -0.001732     -0.001424
5.74814      2.48902      4.06455        -0.004022      0.004549     -0.131274
2.87633      2.49516      8.10619        -0.000707      0.001732     -0.001424
5.74814      7.46705      4.06455        -0.004022     -0.004549     -0.131274
0.72075      8.70950      8.09790         0.001620      0.005808     -0.003446
3.59259      3.73352      4.06455         0.006431      0.007931     -0.123582
0.71475      3.73419      8.09649        -0.001547      0.003223     -0.001870
3.59259      8.71156      4.06455        -0.001089     -0.003021     -0.132200
0.71475      6.22188      8.09649        -0.001547     -0.003223     -0.001870
3.59259      1.24451      4.06455        -0.001089      0.003021     -0.132200
0.72075      1.24657      8.09790         0.001620     -0.005808     -0.003446
3.59259      6.22254      4.06455         0.006431     -0.007931     -0.123582
7.18520      7.46833      8.09722        -0.004055      0.000827     -0.002852
1.43703      2.48902      4.06455         0.001291      0.007229     -0.129741
7.18520      2.48773      8.09722        -0.004055     -0.000827     -0.002852
1.43703      7.46705      4.06455         0.001291     -0.007229     -0.129741
-0.00017      7.46760      6.08019        -0.001360     -0.005272      0.000678
2.87407      2.48902      2.03227         0.002182     -0.001577      0.136915
5.75453      2.47434     10.10189        -0.002930     -0.000233     -0.002077
-0.00017      2.48846      6.08019        -0.001360      0.005272      0.000678
5.75453      7.48173     10.10189        -0.002930      0.000233     -0.002077
2.87407      7.46705      2.03227         0.002182      0.001577      0.136915
6.46652      8.71187      6.08016        -0.004529     -0.003607      0.002293
0.71852      3.73352      2.03227        -0.000090     -0.001971      0.137282
3.58368      3.72358     10.13960        -0.001016      0.001397      0.000080
6.46682      3.73479      6.08274         0.003864     -0.001042     -0.002177
3.59042      8.71252     10.10240        -0.000895     -0.001235     -0.000476
0.71852      8.71156      2.03227         0.002555     -0.000932      0.144573
6.46682      6.22127      6.08274         0.003864      0.001042     -0.002177
0.71852      1.24451      2.03227         0.002555      0.000932      0.144573
3.59042      1.24354     10.10240        -0.000895      0.001235     -0.000476
6.46652      1.24419      6.08016        -0.004529      0.003607      0.002293
3.58368      6.23248     10.13960        -0.001016     -0.001397      0.000080
0.71852      6.22254      2.03227        -0.000090      0.001971      0.137282
4.30751      4.97803     11.03244         0.003639     -0.000000     -0.003608
