Ni  H                                   
   1.00000000000000     
     8.6222037999999994    0.0000000000000000    0.0000000000000000
     0.0000000000000000    9.9560633000000003    0.0000000000000000
     0.0000000000000000    0.0000000000000000   24.1936378000000012
   Ni   H 
    80     1
Cartesian
2.86741      4.97803      8.12509         0.015792      0.000000     -0.010094
5.74814      4.97803      4.06455        -0.027185      0.000000     -0.081540
5.74814      0.00000      4.06455         0.005002      0.000000     -0.131499
2.87889      0.00000      8.10142        -0.014127      0.000000      0.002747
1.43738      0.00000     10.10879         0.016453      0.000000     -0.009426
4.30726      4.97803      6.09841         0.004649      0.000000     -0.022249
7.18517      4.97803      2.03227         0.003008      0.000000      0.135016
1.41072      4.97803     10.12589         0.014238      0.000000     -0.057658
7.18517      0.00000      2.03227        -0.000097      0.000000      0.139825
4.31535      0.00000      6.08433        -0.010954      0.000000     -0.012244
7.90823      1.23879     10.10703        -0.008428      0.009629      0.001697
2.15296      6.22518      6.08985         0.002442     -0.030682      0.009138
5.02962      6.22254      2.03227         0.002935      0.000477      0.138152
7.89208      6.22757     10.11522         0.042212      0.005704     -0.001153
5.02962      1.24451      2.03227         0.001018     -0.000455      0.139315
2.15966      1.24543      6.08178        -0.016143     -0.023006      0.013206
7.90823      8.71728     10.10703        -0.008428     -0.009629      0.001697
2.15296      3.73088      6.08985         0.002442      0.030682      0.009138
5.02962      3.73352      2.03227         0.002935     -0.000477      0.138152
7.89208      3.72849     10.11522         0.042212     -0.005704     -0.001153
5.02962      8.71156      2.03227         0.001018      0.000455      0.139315
2.15966      8.71063      6.08178        -0.016143      0.023006      0.013206
5.74918      0.00000     10.10654         0.000171      0.000000      0.010458
-0.00475      4.97803      6.08456         0.037885      0.000000      0.016101
2.87407      4.97803      2.03227         0.000979      0.000000      0.150612
5.75804      4.97803     10.16544        -0.081616      0.000000     -0.018862
2.87407      0.00000      2.03227        -0.000129      0.000000      0.140616
0.00629      0.00000      6.08041        -0.012753      0.000000      0.004878
7.18916      0.00000      8.09355        -0.000625      0.000000      0.034653
1.43703      4.97803      4.06455         0.003871      0.000000     -0.105862
7.17135      4.97803      8.12287         0.010585      0.000000     -0.041592
1.43703      0.00000      4.06455         0.008001      0.000000     -0.162171
5.03119      1.24328      8.10467         0.000449      0.030669     -0.014179
7.90369      6.22254      4.06455        -0.007501     -0.000003     -0.106756
5.02693      6.22314      8.12392        -0.000678     -0.004434     -0.012688
7.90369      1.24451      4.06455        -0.003255      0.002840     -0.128123
5.03119      8.71279      8.10467         0.000449     -0.030669     -0.014179
7.90369      3.73352      4.06455        -0.007501      0.000003     -0.106756
5.02693      3.73293      8.12392        -0.000678      0.004434     -0.012688
7.90369      8.71156      4.06455        -0.003255     -0.002840     -0.128123
1.43614      7.46734     10.11391        -0.029464      0.003916     -0.007981
4.30670      2.49013      6.08835         0.032398      0.006531      0.010214
7.18517      2.48902      2.03227         0.003831      0.000395      0.137572
1.43614      2.48872     10.11391        -0.029464     -0.003916     -0.007981
7.18517      7.46705      2.03227         0.003831     -0.000395      0.137572
4.30670      7.46593      6.08835         0.032398     -0.006531      0.010214
2.87745      7.45796      8.12234        -0.002796      0.005868     -0.051110
5.74814      2.48902      4.06455        -0.009040      0.008825     -0.103788
2.87745      2.49810      8.12234        -0.002796     -0.005868     -0.051110
5.74814      7.46705      4.06455        -0.009040     -0.008825     -0.103788
0.72318      8.70927      8.09970         0.015741      0.001143      0.004155
3.59259      3.73352      4.06455         0.004627      0.015722     -0.079618
0.71049      3.73419      8.10906         0.009524      0.023170     -0.011841
3.59259      8.71156      4.06455         0.007811     -0.002994     -0.113259
0.71049      6.22187      8.10906         0.009524     -0.023170     -0.011841
3.59259      1.24451      4.06455         0.007811      0.002994     -0.113259
0.72318      1.24680      8.09970         0.015741     -0.001143      0.004155
3.59259      6.22254      4.06455         0.004627     -0.015722     -0.079618
7.18567      7.46884      8.10560        -0.025813     -0.004719     -0.015391
1.43703      2.48902      4.06455         0.000013      0.010336     -0.105932
7.18567      2.48723      8.10560        -0.025813      0.004719     -0.015391
1.43703      7.46705      4.06455         0.000013     -0.010336     -0.105932
-0.00082      7.46539      6.08498         0.003327      0.008928     -0.012600
2.87407      2.48902      2.03227         0.001682     -0.001493      0.138089
5.75730      2.47002     10.12167        -0.017871      0.019543     -0.049520
-0.00082      2.49067      6.08498         0.003327     -0.008928     -0.012600
5.75730      7.48604     10.12167        -0.017871     -0.019543     -0.049520
2.87407      7.46705      2.03227         0.001682      0.001493      0.138089
6.46829      8.71124      6.08202        -0.011749     -0.013533     -0.000173
0.71852      3.73352      2.03227         0.000179     -0.002537      0.139263
3.58135      3.72097     10.16611         0.036452      0.065282     -0.018510
6.46547      3.73585      6.08841        -0.020736     -0.011490      0.013316
3.59236      8.70923     10.11240         0.003416      0.040586     -0.007745
0.71852      8.71156      2.03227         0.001448     -0.001643      0.145673
6.46547      6.22022      6.08841        -0.020736      0.011490      0.013316
0.71852      1.24451      2.03227         0.001448      0.001643      0.145673
3.59236      1.24683     10.11240         0.003416     -0.040586     -0.007745
6.46829      1.24482      6.08202        -0.011749      0.013533     -0.000173
3.58135      6.23509     10.16611         0.036452     -0.065282     -0.018510
0.71852      6.22254      2.03227         0.000179      0.002537      0.139263
4.31011      4.97803     11.07065        -0.005211      0.000000     -0.080558
