Ni  H                                   
   1.00000000000000     
     8.6222037999999994    0.0000000000000000    0.0000000000000000
     0.0000000000000000    9.9560633000000003    0.0000000000000000
     0.0000000000000000    0.0000000000000000   24.1936378000000012
   Ni   H 
    80     1
Cartesian
2.87249      4.97803      8.10466         0.000194     -0.000000      0.001043
5.74814      4.97803      4.06455        -0.014522     -0.000000     -0.125304
5.74814      0.00000      4.06455         0.002504     -0.000000     -0.145835
2.87437      0.00000      8.09520        -0.000602     -0.000000     -0.000415
1.43569      0.00000     10.10322        -0.000162     -0.000000     -0.001379
4.31062      4.97803      6.08554        -0.000718     -0.000000     -0.001152
7.18517      4.97803      2.03227         0.002272     -0.000000      0.133748
1.41678      4.97803     10.10025        -0.000756     -0.000000      0.000587
7.18517      0.00000      2.03227         0.000491     -0.000000      0.139111
4.31119      0.00000      6.07959         0.000396     -0.000000     -0.000036
7.90438      1.24129     10.10302        -0.000840     -0.001699     -0.000318
2.15547      6.22379      6.08194        -0.000207      0.000390      0.000170
5.02962      6.22254      2.03227         0.002753      0.000472      0.136053
7.89882      6.22681     10.10130        -0.000127     -0.000218      0.000583
5.02962      1.24451      2.03227         0.001874     -0.000620      0.137837
2.15522      1.24284      6.07847         0.000221     -0.000599     -0.000182
7.90438      8.71477     10.10302        -0.000840      0.001699     -0.000318
2.15547      3.73228      6.08194        -0.000207     -0.000390      0.000170
5.02962      3.73352      2.03227         0.002753     -0.000472      0.136053
7.89882      3.72926     10.10130        -0.000127      0.000218      0.000583
5.02962      8.71156      2.03227         0.001874      0.000620      0.137837
2.15522      8.71322      6.07847         0.000221      0.000599     -0.000182
5.74535      0.00000     10.10206         0.000979     -0.000000     -0.000264
0.00135      4.97803      6.07818        -0.000043     -0.000000      0.001621
2.87407      4.97803      2.03227         0.000439     -0.000000      0.148247
5.75583      4.97803     10.13881        -0.001774     -0.000000     -0.000487
2.87407      0.00000      2.03227         0.001573     -0.000000      0.138733
0.00017      0.00000      6.08043         0.000466     -0.000000     -0.000272
7.18542      0.00000      8.09624         0.000957     -0.000000     -0.000412
1.43703      4.97803      4.06455         0.007313     -0.000000     -0.151062
7.17692      4.97803      8.10617         0.000532     -0.000000     -0.000053
1.43703      0.00000      4.06455        -0.005003     -0.000000     -0.176477
5.02833      1.24458      8.09553         0.001427      0.000499     -0.000944
7.90369      6.22254      4.06455        -0.003143      0.000310     -0.134584
5.02848      6.22244      8.10473        -0.000879      0.000199      0.000783
7.90369      1.24451      4.06455        -0.006808     -0.001324     -0.143317
5.02833      8.71149      8.09553         0.001427     -0.000499     -0.000944
7.90369      3.73352      4.06455        -0.003143     -0.000310     -0.134584
5.02848      3.73362      8.10473        -0.000879     -0.000199      0.000783
7.90369      8.71156      4.06455        -0.006808      0.001324     -0.143317
1.43382      7.46795     10.10135         0.000163     -0.000216      0.000157
4.30934      2.48958      6.08186         0.000244     -0.000569     -0.000467
7.18517      2.48902      2.03227         0.003435      0.000464      0.136321
1.43382      2.48811     10.10135         0.000163      0.000216      0.000157
7.18517      7.46705      2.03227         0.003435     -0.000464      0.136321
4.30934      7.46648      6.08186         0.000244      0.000569     -0.000467
2.87639      7.46056      8.10536        -0.000870     -0.000304     -0.000241
5.74814      2.48902      4.06455        -0.004581      0.005207     -0.135032
2.87639      2.49551      8.10536        -0.000870      0.000304     -0.000241
5.74814      7.46705      4.06455        -0.004581     -0.005207     -0.135032
0.72109      8.70992      8.09596         0.000027      0.000557     -0.000926
3.59259      3.73352      4.06455         0.006338      0.008623     -0.125186
0.71430      3.73440      8.09512        -0.000132      0.000878      0.000253
3.59259      8.71156      4.06455        -0.000107     -0.003131     -0.134781
0.71430      6.22166      8.09512        -0.000132     -0.000878      0.000253
3.59259      1.24451      4.06455        -0.000107      0.003131     -0.134781
0.72109      1.24614      8.09596         0.000027     -0.000557     -0.000926
3.59259      6.22254      4.06455         0.006338     -0.008623     -0.125186
7.18462      7.46855      8.09568        -0.001139     -0.000857     -0.000096
1.43703      2.48902      4.06455         0.001377      0.007497     -0.132340
7.18462      2.48751      8.09568        -0.001139      0.000857     -0.000096
1.43703      7.46705      4.06455         0.001377     -0.007497     -0.132340
-0.00033      7.46711      6.07963         0.000043     -0.000111     -0.000575
2.87407      2.48902      2.03227         0.002287     -0.001542      0.136728
5.75374      2.47413     10.10080         0.000208      0.000479     -0.000865
-0.00033      2.48895      6.07963         0.000043      0.000111     -0.000575
5.75374      7.48193     10.10080         0.000208     -0.000479     -0.000865
2.87407      7.46705      2.03227         0.002287      0.001542      0.136728
6.46609      8.71142      6.07949        -0.000559      0.000100      0.000205
0.71852      3.73352      2.03227         0.000137     -0.002070      0.137411
3.58332      3.72363     10.13934        -0.000055      0.000850     -0.000721
6.46695      3.73492      6.08203        -0.000618     -0.001089      0.000169
3.59006      8.71235     10.10120        -0.000304      0.000803     -0.000500
0.71852      8.71156      2.03227         0.002628     -0.000853      0.144576
6.46695      6.22114      6.08203        -0.000618      0.001089      0.000169
0.71852      1.24451      2.03227         0.002628      0.000853      0.144576
3.59006      1.24372     10.10120        -0.000304     -0.000803     -0.000500
6.46609      1.24465      6.07949        -0.000559     -0.000100      0.000205
3.58332      6.23243     10.13934        -0.000055     -0.000850     -0.000721
0.71852      6.22254      2.03227         0.000137      0.002070      0.137411
4.30901      4.97803     11.03119        -0.000121     -0.000000     -0.000285
