Ni  H                                   
   1.00000000000000     
     8.6222037999999994    0.0000000000000000    0.0000000000000000
     0.0000000000000000    9.9560633000000003    0.0000000000000000
     0.0000000000000000    0.0000000000000000   24.1936378000000012
   Ni   H 
    80     1
Cartesian
2.88168      4.97803      8.16322        -0.083001     -0.000000     -0.142156
5.74814      4.97803      4.06455        -0.033095     -0.000000     -0.029913
5.74814      0.00000      4.06455         0.002675     -0.000000     -0.143858
2.88022      0.00000      8.10453        -0.000498     -0.000000     -0.017374
1.43857      0.00000     10.10409        -0.011801     -0.000000      0.020077
4.31001      4.97803      6.11501        -0.006374     -0.000000     -0.027385
7.18517      4.97803      2.03227         0.005570     -0.000000      0.135434
1.41831      4.97803     10.11587        -0.041025     -0.000000      0.045970
7.18517      0.00000      2.03227         0.001274     -0.000000      0.140790
4.31134      0.00000      6.07998         0.008562     -0.000000      0.017925
7.90447      1.24406     10.10171        -0.001108     -0.031248      0.013118
2.15936      6.21769      6.10057        -0.026061      0.012143     -0.030547
5.02962      6.22254      2.03227         0.003055      0.000588      0.139819
7.90032      6.22931     10.11408        -0.026574     -0.021194     -0.007625
5.02962      1.24451      2.03227         0.000999     -0.000568      0.139333
2.16091      1.24817      6.08929         0.001013     -0.011608     -0.026679
7.90447      8.71200     10.10171        -0.001108      0.031248      0.013118
2.15936      3.73838      6.10057        -0.026061     -0.012143     -0.030547
5.02962      3.73352      2.03227         0.003055     -0.000588      0.139819
7.90032      3.72675     10.11408        -0.026574      0.021194     -0.007625
5.02962      8.71156      2.03227         0.000999      0.000568      0.139333
2.16091      8.70789      6.08929         0.001013      0.011608     -0.026679
5.74359      0.00000     10.10035         0.036265     -0.000000      0.011183
-0.00620      4.97803      6.08720         0.000234     -0.000000     -0.025876
2.87407      4.97803      2.03227         0.001163     -0.000000      0.153330
5.75553      4.97803     10.21469        -0.063235     -0.000000     -0.046123
2.87407      0.00000      2.03227        -0.002223     -0.000000      0.140258
0.00398      0.00000      6.08299         0.014088     -0.000000      0.008809
7.18901      0.00000      8.09620         0.007294     -0.000000     -0.006548
1.43703      4.97803      4.06455         0.005525     -0.000000     -0.074113
7.15919      4.97803      8.13183         0.047918     -0.000000      0.004330
1.43703      0.00000      4.06455         0.018057     -0.000000     -0.124567
5.02984      1.24759      8.09832         0.007006     -0.004390      0.020934
7.90369      6.22254      4.06455        -0.025977     -0.005347     -0.086825
5.02224      6.21219      8.16238         0.032723      0.065924     -0.140968
7.90369      1.24451      4.06455        -0.004183     -0.003257     -0.134786
5.02984      8.70847      8.09832         0.007006      0.004390      0.020934
7.90369      3.73352      4.06455        -0.025977      0.005347     -0.086825
5.02224      3.74387      8.16238         0.032723     -0.065924     -0.140968
7.90369      8.71156      4.06455        -0.004183      0.003257     -0.134786
1.43073      7.46234     10.11414         0.035205      0.025339     -0.008209
4.31146      2.49763      6.09945        -0.005831     -0.015734     -0.038946
7.18517      2.48902      2.03227         0.004320      0.002690      0.137869
1.43073      2.49372     10.11414         0.035205     -0.025339     -0.008209
7.18517      7.46705      2.03227         0.004320     -0.002690      0.137869
4.31146      7.45844      6.09945        -0.005831      0.015734     -0.038946
2.88368      7.44462      8.13099        -0.027538      0.054317      0.010646
5.74814      2.48902      4.06455        -0.013637      0.021676     -0.083544
2.88368      2.51144      8.13099        -0.027538     -0.054317      0.010646
5.74814      7.46705      4.06455        -0.013637     -0.021676     -0.083544
0.72868      8.70394      8.10177        -0.017533      0.022671     -0.014291
3.59259      3.73352      4.06455         0.012335      0.024951     -0.026102
0.70720      3.73961      8.10196         0.017793     -0.013459      0.016754
3.59259      8.71156      4.06455         0.007856     -0.026848     -0.086423
0.70720      6.21645      8.10196         0.017793      0.013459      0.016754
3.59259      1.24451      4.06455         0.007856      0.026848     -0.086423
0.72868      1.25212      8.10177        -0.017533     -0.022671     -0.014291
3.59259      6.22254      4.06455         0.012335     -0.024951     -0.026102
7.18220      7.46869      8.09822        -0.000998     -0.003545      0.023211
1.43703      2.48902      4.06455         0.020604      0.023551     -0.079201
7.18220      2.48737      8.09822        -0.000998      0.003545      0.023211
1.43703      7.46705      4.06455         0.020604     -0.023551     -0.079201
0.00046      7.46729      6.08006        -0.002405     -0.015357      0.020228
2.87407      2.48902      2.03227        -0.000079     -0.005024      0.141364
5.75257      2.47715     10.11632         0.027302     -0.042522      0.025186
0.00046      2.48877      6.08006        -0.002405      0.015357      0.020228
5.75257      7.47892     10.11632         0.027302      0.042522      0.025186
2.87407      7.46705      2.03227        -0.000079      0.005024      0.141364
6.46569      8.71068      6.07969         0.006177      0.005693      0.003016
0.71852      3.73352      2.03227         0.002207     -0.002586      0.140149
3.58507      3.72559     10.21576         0.024422      0.045750     -0.048937
6.45904      3.73718      6.09934         0.015492     -0.011695     -0.035007
3.59476      8.71438     10.11409        -0.023678     -0.035312     -0.013031
0.71852      8.71156      2.03227         0.001580      0.000621      0.146339
6.45904      6.21889      6.09934         0.015492      0.011695     -0.035007
0.71852      1.24451      2.03227         0.001580     -0.000621      0.146339
3.59476      1.24168     10.11409        -0.023678      0.035312     -0.013031
6.46569      1.24539      6.07969         0.006177     -0.005693      0.003016
3.58507      6.23047     10.21576         0.024422     -0.045750     -0.048937
0.71852      6.22254      2.03227         0.002207      0.002586      0.140149
4.30938      4.97803     11.16610         0.003650     -0.000000     -0.273882
