Ni  H                                   
   1.00000000000000     
     8.6222037999999994    0.0000000000000000    0.0000000000000000
     0.0000000000000000    9.9560633000000003    0.0000000000000000
     0.0000000000000000    0.0000000000000000   24.1936378000000012
   Ni   H 
    80     1
Cartesian
2.87105      4.97803      8.11850        -0.010431      0.000000     -0.023391
5.74814      4.97803      4.06455        -0.015703      0.000000     -0.100190
5.74814      0.00000      4.06455         0.007856      0.000000     -0.127166
2.87616      0.00000      8.10131         0.017499      0.000000     -0.007549
1.43958      0.00000     10.10810        -0.004416      0.000000      0.002212
4.30725      4.97803      6.08839         0.007287      0.000000      0.027582
7.18517      4.97803      2.03227         0.002499      0.000000      0.135458
1.41359      4.97803     10.11800         0.007577      0.000000     -0.024713
7.18517      0.00000      2.03227        -0.000371      0.000000      0.139720
4.31513      0.00000      6.08326        -0.012642      0.000000      0.002603
7.90884      1.24002     10.10863        -0.020622     -0.000266     -0.005659
2.15246      6.22440      6.08782         0.013391     -0.007037      0.001521
5.02962      6.22254      2.03227         0.003007      0.000803      0.136934
7.89539      6.22898     10.11555         0.009174     -0.021959     -0.023332
5.02962      1.24451      2.03227         0.001486     -0.000281      0.138693
2.15682      1.24224      6.08225         0.003452      0.007048     -0.008196
7.90884      8.71604     10.10863        -0.020622      0.000266     -0.005659
2.15246      3.73167      6.08782         0.013391      0.007037      0.001521
5.02962      3.73352      2.03227         0.003007     -0.000803      0.136934
7.89539      3.72708     10.11555         0.009174      0.021959     -0.023332
5.02962      8.71156      2.03227         0.001486      0.000281      0.138693
2.15682      8.71382      6.08225         0.003452     -0.007048     -0.008196
5.74862      0.00000     10.10983         0.009942      0.000000     -0.012389
0.00083      4.97803      6.08754        -0.010229      0.000000     -0.028131
2.87407      4.97803      2.03227         0.000432      0.000000      0.148872
5.75359      4.97803     10.15398         0.013988      0.000000     -0.021654
2.87407      0.00000      2.03227         0.000524      0.000000      0.140203
0.00433      0.00000      6.07912        -0.024332      0.000000      0.027313
7.18825      0.00000      8.09732         0.001378      0.000000      0.015037
1.43703      4.97803      4.06455         0.002169      0.000000     -0.115967
7.17236      4.97803      8.11490         0.018000      0.000000      0.017569
1.43703      0.00000      4.06455         0.004935      0.000000     -0.169797
5.03104      1.24539      8.10364        -0.006977     -0.002905     -0.009161
7.90369      6.22254      4.06455        -0.003033     -0.005546     -0.101306
5.02599      6.22127      8.11676         0.006895      0.009758     -0.022574
7.90369      1.24451      4.06455        -0.007261      0.002747     -0.132367
5.03104      8.71067      8.10364        -0.006977      0.002905     -0.009161
7.90369      3.73352      4.06455        -0.003033      0.005546     -0.101306
5.02599      3.73479      8.11676         0.006895     -0.009758     -0.022574
7.90369      8.71156      4.06455        -0.007261     -0.002747     -0.132367
1.43269      7.46786     10.11290         0.019220      0.003843     -0.022266
4.30868      2.48823      6.08692         0.005140      0.016028     -0.006274
7.18517      2.48902      2.03227         0.003275      0.000121      0.137277
1.43269      2.48820     10.11290         0.019220     -0.003843     -0.022266
7.18517      7.46705      2.03227         0.003275     -0.000121      0.137277
4.30868      7.46784      6.08692         0.005140     -0.016028     -0.006274
2.87757      7.45875      8.11263        -0.010432      0.012572      0.017075
5.74814      2.48902      4.06455        -0.007189      0.007711     -0.112824
2.87757      2.49732      8.11263        -0.010432     -0.012572      0.017075
5.74814      7.46705      4.06455        -0.007189     -0.007711     -0.112824
0.72409      8.70985      8.10025        -0.009193     -0.006654     -0.001008
3.59259      3.73352      4.06455         0.001130      0.004868     -0.098763
0.71184      3.73584      8.10864         0.006080     -0.009851     -0.019886
3.59259      8.71156      4.06455         0.002390     -0.001979     -0.115027
0.71184      6.22022      8.10864         0.006080      0.009851     -0.019886
3.59259      1.24451      4.06455         0.002390      0.001979     -0.115027
0.72409      1.24622      8.10025        -0.009193      0.006654     -0.001008
3.59259      6.22254      4.06455         0.001130     -0.004868     -0.098763
7.18423      7.46855      8.10466         0.000988     -0.008650     -0.009798
1.43703      2.48902      4.06455         0.001582      0.007438     -0.109037
7.18423      2.48751      8.10466         0.000988      0.008650     -0.009798
1.43703      7.46705      4.06455         0.001582     -0.007438     -0.109037
-0.00081      7.46705      6.08389         0.003621     -0.007392      0.002660
2.87407      2.48902      2.03227         0.002336     -0.000792      0.138099
5.75447      2.47360     10.11451        -0.000933     -0.000678     -0.025512
-0.00081      2.48902      6.08389         0.003621      0.007392      0.002660
5.75447      7.48247     10.11451        -0.000933      0.000678     -0.025512
2.87407      7.46705      2.03227         0.002336      0.000792      0.138099
6.46756      8.70936      6.08282        -0.002185      0.017435     -0.005170
0.71852      3.73352      2.03227         0.000320     -0.001741      0.138901
3.58250      3.72364     10.15483        -0.006369     -0.011302     -0.022155
6.46523      3.73486      6.08722        -0.001799      0.005451     -0.001424
3.59354      8.71426     10.11121        -0.014435     -0.020608     -0.020386
0.71852      8.71156      2.03227         0.002399     -0.001125      0.145332
6.46523      6.22120      6.08722        -0.001799     -0.005451     -0.001424
0.71852      1.24451      2.03227         0.002399      0.001125      0.145332
3.59354      1.24181     10.11121        -0.014435      0.020608     -0.020386
6.46756      1.24671      6.08282        -0.002185     -0.017435     -0.005170
3.58250      6.23242     10.15483        -0.006369      0.011302     -0.022155
0.71852      6.22254      2.03227         0.000320      0.001741      0.138901
4.30948      4.97803     11.04575        -0.006878      0.000000      0.005642
