Ni  H                                   
   1.00000000000000     
     8.6222037999999994    0.0000000000000000    0.0000000000000000
     0.0000000000000000    9.9560633000000003    0.0000000000000000
     0.0000000000000000    0.0000000000000000   24.1936378000000012
   Ni   H 
    80     1
Cartesian
2.87233      4.97803      8.07935         0.135060      0.000000      0.587357
5.74814      4.97803      4.06455        -0.019345      0.000000     -0.133174
5.74814      0.00000      4.06455         0.001620      0.000000     -0.133149
2.87371      0.00000      8.09827         0.000068      0.000000     -0.030184
1.43379      0.00000     10.10865        -0.008065      0.000000     -0.019935
4.31203      4.97803      6.08671        -0.015633      0.000000     -0.082398
7.18517      4.97803      2.03227         0.003247      0.000000      0.125815
1.41150      4.97803     10.09997         0.232963      0.000000      0.022473
7.18517      0.00000      2.03227        -0.000156      0.000000      0.144053
4.31336      0.00000      6.08340        -0.004798      0.000000     -0.014716
7.90245      1.24244     10.10521         0.004105     -0.039619      0.001242
2.15115      6.22584      6.07935         0.033856      0.036746      0.029769
5.02962      6.22254      2.03227         0.004208     -0.000384      0.132333
7.91241      6.22936     10.09750        -0.218096     -0.065378      0.082254
5.02962      1.24451      2.03227         0.000565      0.001450      0.137507
2.15675      1.23976      6.07985         0.008376      0.059760      0.053455
7.90245      8.71362     10.10521         0.004105      0.039619      0.001242
2.15115      3.73023      6.07935         0.033856     -0.036746      0.029769
5.02962      3.73352      2.03227         0.004208      0.000384      0.132333
7.91241      3.72670     10.09750        -0.218096      0.065378      0.082254
5.02962      8.71156      2.03227         0.000565     -0.001450      0.137507
2.15675      8.71630      6.07985         0.008376     -0.059760      0.053455
5.74724      0.00000     10.10524        -0.002750      0.000000     -0.000882
0.00166      4.97803      6.07834        -0.038358      0.000000      0.067715
2.87407      4.97803      2.03227         0.002560      0.000000      0.146166
5.68845      4.97803     10.34306         0.610300      0.000000     -0.606117
2.87407      0.00000      2.03227         0.006712      0.000000      0.139615
0.00294      0.00000      6.08453        -0.019861      0.000000     -0.018180
7.18222      0.00000      8.09876         0.037008      0.000000     -0.008969
1.43703      4.97803      4.06455         0.005698      0.000000     -0.161515
7.15629      4.97803      8.13267        -0.060203      0.000000      0.093606
1.43703      0.00000      4.06455        -0.007877      0.000000     -0.174982
5.03134      1.24762      8.09956        -0.040330     -0.033841     -0.028561
7.90369      6.22254      4.06455         0.002180     -0.000782     -0.132264
5.03092      6.22644      8.07931        -0.070223     -0.147947      0.586069
7.90369      1.24451      4.06455        -0.006488     -0.001584     -0.126038
5.03134      8.70844      8.09956        -0.040330      0.033841     -0.028561
7.90369      3.73352      4.06455         0.002180      0.000782     -0.132264
5.03092      3.72963      8.07931        -0.070223      0.147947      0.586069
7.90369      8.71156      4.06455        -0.006488      0.001584     -0.126038
1.42468      7.47524     10.09923         0.193042     -0.111502      0.063572
4.30910      2.48680      6.07926        -0.035579     -0.006595      0.018534
7.18517      2.48902      2.03227         0.002652      0.001712      0.135978
1.42468      2.48083     10.09923         0.193042      0.111502      0.063572
7.18517      7.46705      2.03227         0.002652     -0.001712      0.135978
4.30910      7.46926      6.07926        -0.035579      0.006595      0.018534
2.88941      7.44182      8.13078         0.000794     -0.041044      0.107002
5.74814      2.48902      4.06455        -0.000723     -0.000735     -0.140030
2.88941      2.51424      8.13078         0.000794      0.041044      0.107002
5.74814      7.46705      4.06455        -0.000723      0.000735     -0.140030
0.72060      8.70775      8.09802         0.039938     -0.007147     -0.009424
3.59259      3.73352      4.06455         0.008358      0.013864     -0.123890
0.71625      3.73854      8.10030        -0.037177     -0.011057     -0.065533
3.59259      8.71156      4.06455        -0.001108      0.001439     -0.129326
0.71625      6.21752      8.10030        -0.037177      0.011057     -0.065533
3.59259      1.24451      4.06455        -0.001108     -0.001439     -0.129326
0.72060      1.24831      8.09802         0.039938      0.007147     -0.009424
3.59259      6.22254      4.06455         0.008358     -0.013864     -0.123890
7.18102      7.46698      8.10016         0.043848     -0.002122     -0.042133
1.43703      2.48902      4.06455         0.001230     -0.000254     -0.122966
7.18102      2.48908      8.10016         0.043848      0.002122     -0.042133
1.43703      7.46705      4.06455         0.001230      0.000254     -0.122966
-0.00059      7.46520      6.08304         0.002151      0.023780     -0.011894
2.87407      2.48902      2.03227         0.000671     -0.001831      0.135891
5.75850      2.46848     10.09898        -0.113948      0.191194      0.029550
-0.00059      2.49086      6.08304         0.002151     -0.023780     -0.011894
5.75850      7.48758     10.09898        -0.113948     -0.191194      0.029550
2.87407      7.46705      2.03227         0.000671      0.001831      0.135891
6.46662      8.71213      6.08206         0.008875     -0.008631     -0.014241
0.71852      3.73352      2.03227        -0.002926     -0.002671      0.137262
3.61816      3.78255     10.34308        -0.301984     -0.533613     -0.599946
6.47029      3.73442      6.07884         0.016839      0.023940      0.026261
3.58815      8.72423     10.09865         0.024916     -0.224324      0.066091
0.71852      8.71156      2.03227         0.002783     -0.005768      0.149464
6.47029      6.22164      6.07884         0.016839     -0.023940      0.026261
0.71852      1.24451      2.03227         0.002783      0.005768      0.149464
3.58815      1.23183     10.09865         0.024916      0.224324      0.066091
6.46662      1.24394      6.08206         0.008875      0.008631     -0.014241
3.61816      6.17351     10.34308        -0.301984      0.533613     -0.599946
0.71852      6.22254      2.03227        -0.002926      0.002671      0.137262
4.30935      4.97803     11.42790         0.000199      0.000000     -0.634583
