Ni  H                                   
   1.00000000000000     
     8.6222037999999994    0.0000000000000000    0.0000000000000000
     0.0000000000000000    9.9560633000000003    0.0000000000000000
     0.0000000000000000    0.0000000000000000   24.1936378000000012
   Ni   H 
    80     1
Cartesian
2.87330      4.97803      8.10466        -0.005590     -0.000000      0.000535
5.74814      4.97803      4.06455        -0.013458     -0.000000     -0.124492
5.74814      0.00000      4.06455         0.002005     -0.000000     -0.143940
2.87391      0.00000      8.09612         0.001689     -0.000000     -0.001798
1.43581      0.00000     10.10465        -0.000988     -0.000000     -0.003652
4.31060      4.97803      6.08524         0.001863     -0.000000      0.001267
7.18517      4.97803      2.03227         0.002304     -0.000000      0.133810
1.41713      4.97803     10.10051        -0.000481     -0.000000      0.000655
7.18517      0.00000      2.03227         0.000558     -0.000000      0.139048
4.31099      0.00000      6.08016         0.000196     -0.000000     -0.002936
7.90427      1.24079     10.10455         0.001142      0.004148     -0.003961
2.15572      6.22403      6.08214        -0.002616     -0.001923     -0.000799
5.02962      6.22254      2.03227         0.002795      0.000480      0.136034
7.89909      6.22669     10.10166        -0.000244      0.001502      0.001151
5.02962      1.24451      2.03227         0.002002     -0.000699      0.137760
2.15522      1.24270      6.07901        -0.001221     -0.000073     -0.001536
7.90427      8.71528     10.10455         0.001142     -0.004148     -0.003961
2.15572      3.73204      6.08214        -0.002616      0.001923     -0.000799
5.02962      3.73352      2.03227         0.002795     -0.000480      0.136034
7.89909      3.72937     10.10166        -0.000244     -0.001502      0.001151
5.02962      8.71156      2.03227         0.002002      0.000699      0.137760
2.15522      8.71336      6.07901        -0.001221      0.000073     -0.001536
5.74556      0.00000     10.10291        -0.002272     -0.000000     -0.001627
0.00147      4.97803      6.07886         0.000960     -0.000000     -0.002934
2.87407      4.97803      2.03227         0.000367     -0.000000      0.148291
5.75574      4.97803     10.13926        -0.000628     -0.000000      0.000126
2.87407      0.00000      2.03227         0.001661     -0.000000      0.138775
-0.00018      0.00000      6.08111         0.003434     -0.000000     -0.002167
7.18548      0.00000      8.09738        -0.000325     -0.000000     -0.001792
1.43703      4.97803      4.06455         0.006966     -0.000000     -0.148716
7.17728      4.97803      8.10653        -0.001692     -0.000000     -0.000288
1.43703      0.00000      4.06455        -0.005747     -0.000000     -0.173491
5.02833      1.24459      8.09585        -0.000224      0.000251      0.001007
7.90369      6.22254      4.06455        -0.002470     -0.000029     -0.132707
5.02867      6.22235      8.10506        -0.000435      0.001892     -0.002019
7.90369      1.24451      4.06455        -0.006905     -0.001529     -0.141012
5.02833      8.71147      8.09585        -0.000224     -0.000251      0.001007
7.90369      3.73352      4.06455        -0.002470      0.000029     -0.132707
5.02867      3.73371      8.10506        -0.000435     -0.001892     -0.002019
7.90369      8.71156      4.06455        -0.006905      0.001529     -0.141012
1.43429      7.46778     10.10199        -0.002326      0.001197     -0.000493
4.30935      2.48938      6.08184         0.000942      0.000759      0.001332
7.18517      2.48902      2.03227         0.003421      0.000369      0.136329
1.43429      2.48828     10.10199        -0.002326     -0.001197     -0.000493
7.18517      7.46705      2.03227         0.003421     -0.000369      0.136329
4.30935      7.46668      6.08184         0.000942     -0.000759      0.001332
2.87623      7.46044      8.10550         0.001598      0.001613      0.000754
5.74814      2.48902      4.06455        -0.003916      0.004499     -0.133832
2.87623      2.49563      8.10550         0.001598     -0.001613      0.000754
5.74814      7.46705      4.06455        -0.003916     -0.004499     -0.133832
0.72092      8.70993      8.09692         0.000106     -0.000217     -0.001047
3.59259      3.73352      4.06455         0.006222      0.008095     -0.125535
0.71461      3.73457      8.09563        -0.000759     -0.001427     -0.000972
3.59259      8.71156      4.06455        -0.000646     -0.002368     -0.133322
0.71461      6.22150      8.09563        -0.000759      0.001427     -0.000972
3.59259      1.24451      4.06455        -0.000646      0.002368     -0.133322
0.72092      1.24614      8.09692         0.000106      0.000217     -0.001047
3.59259      6.22254      4.06455         0.006222     -0.008095     -0.125535
7.18457      7.46858      8.09630         0.001246      0.000060     -0.000548
1.43703      2.48902      4.06455         0.001238      0.006847     -0.130567
7.18457      2.48748      8.09630         0.001246     -0.000060     -0.000548
1.43703      7.46705      4.06455         0.001238     -0.006847     -0.130567
-0.00031      7.46713      6.07995         0.000501      0.000177     -0.000208
2.87407      2.48902      2.03227         0.002252     -0.001579      0.136785
5.75405      2.47417     10.10118        -0.000787     -0.000424     -0.000510
-0.00031      2.48893      6.07995         0.000501     -0.000177     -0.000208
5.75405      7.48189     10.10118        -0.000787      0.000424     -0.000510
2.87407      7.46705      2.03227         0.002252      0.001579      0.136785
6.46599      8.71176      6.08000         0.000489     -0.002480     -0.001416
0.71852      3.73352      2.03227         0.000002     -0.002051      0.137442
3.58361      3.72364     10.13918        -0.000463      0.000640      0.001933
6.46710      3.73468      6.08222        -0.001411      0.001074      0.000005
3.58996      8.71242     10.10169         0.001703     -0.000601     -0.000805
0.71852      8.71156      2.03227         0.002581     -0.000803      0.144718
6.46710      6.22138      6.08222        -0.001411     -0.001074      0.000005
0.71852      1.24451      2.03227         0.002581      0.000803      0.144718
3.58996      1.24364     10.10169         0.001703      0.000601     -0.000805
6.46599      1.24430      6.08000         0.000489      0.002480     -0.001416
3.58361      6.23242     10.13918        -0.000463     -0.000640      0.001933
0.71852      6.22254      2.03227         0.000002      0.002051      0.137442
4.30827      4.97803     11.03188         0.001550     -0.000000     -0.002593
