Ni  H                                   
   1.00000000000000     
     8.6222037999999994    0.0000000000000000    0.0000000000000000
     0.0000000000000000    9.9560633000000003    0.0000000000000000
     0.0000000000000000    0.0000000000000000   24.1936378000000012
   Ni   H 
    80     1
Cartesian
2.87145      4.97803      8.06964         0.146487     -0.000000      0.752289
5.74814      4.97803      4.06455        -0.020805     -0.000000     -0.133095
5.74814      0.00000      4.06455         0.000746     -0.000000     -0.133288
2.87347      0.00000      8.09734        -0.003203     -0.000000     -0.043532
1.43343      0.00000     10.10985        -0.013365     -0.000000     -0.035953
4.31232      4.97803      6.08906        -0.024925     -0.000000     -0.141757
7.18517      4.97803      2.03227         0.002838     -0.000000      0.122532
1.40078      4.97803     10.09715         0.386211     -0.000000      0.065691
7.18517      0.00000      2.03227        -0.001136     -0.000000      0.144069
4.31426      0.00000      6.08421        -0.007572     -0.000000     -0.024944
7.90302      1.24148     10.10482         0.003110     -0.054321      0.002782
2.14896      6.22737      6.07829         0.056181      0.044383      0.041935
5.02962      6.22254      2.03227         0.004853     -0.001230      0.132383
7.91760      6.23253     10.09352        -0.309768     -0.093715      0.140631
5.02962      1.24451      2.03227        -0.000125      0.000995      0.136228
2.15717      1.23755      6.07901         0.013765      0.101567      0.085675
7.90302      8.71459     10.10482         0.003110      0.054321      0.002782
2.14896      3.72870      6.07829         0.056181     -0.044383      0.041935
5.02962      3.73352      2.03227         0.004853      0.001230      0.132383
7.91760      3.72354     10.09352        -0.309768      0.093715      0.140631
5.02962      8.71156      2.03227        -0.000125     -0.000995      0.136228
2.15717      8.71851      6.07901         0.013765     -0.101567      0.085675
5.74797      0.00000     10.10486        -0.006985     -0.000000      0.001118
0.00229      4.97803      6.07680        -0.064143     -0.000000      0.107276
2.87407      4.97803      2.03227         0.001822     -0.000000      0.144813
5.66187      4.97803     10.45314         2.521311     -0.000000     -1.769010
2.87407      0.00000      2.03227         0.006611     -0.000000      0.136227
0.00417      0.00000      6.08587        -0.033910     -0.000000     -0.030853
7.18078      0.00000      8.09806         0.057691     -0.000000     -0.012064
1.43703      4.97803      4.06455         0.004304     -0.000000     -0.163109
7.14280      4.97803      8.14772         0.000085     -0.000000      0.038908
1.43703      0.00000      4.06455        -0.008806     -0.000000     -0.173639
5.03206      1.24907      8.09923        -0.065676     -0.054081     -0.038394
7.90369      6.22254      4.06455         0.001227      0.001289     -0.137427
5.03145      6.22825      8.06957        -0.078770     -0.175127      0.749761
7.90369      1.24451      4.06455        -0.005378     -0.001334     -0.122024
5.03206      8.70700      8.09923        -0.065676      0.054081     -0.038394
7.90369      3.73352      4.06455         0.001227     -0.001289     -0.137427
5.03145      3.72782      8.06957        -0.078770      0.175127      0.749761
7.90369      8.71156      4.06455        -0.005378      0.001334     -0.122024
1.42009      7.47904     10.09606         0.275845     -0.157608      0.111846
4.30803      2.48578      6.07815        -0.045869     -0.003962      0.026587
7.18517      2.48902      2.03227         0.002375      0.002326      0.136989
1.42009      2.47702     10.09606         0.275845      0.157608      0.111846
7.18517      7.46705      2.03227         0.002375     -0.002326      0.136989
4.30803      7.47029      6.07815        -0.045869      0.003962      0.026587
2.89647      7.43011      8.14494        -0.043523      0.021001      0.062226
5.74814      2.48902      4.06455         0.000141     -0.000977     -0.141221
2.89647      2.52596      8.14494        -0.043523     -0.021001      0.062226
5.74814      7.46705      4.06455         0.000141      0.000977     -0.141221
0.72149      8.70598      8.09697         0.051417      0.000575     -0.010569
3.59259      3.73352      4.06455         0.007559      0.016609     -0.121626
0.71513      3.74087      8.10031        -0.041116     -0.028805     -0.093285
3.59259      8.71156      4.06455         0.001999      0.004278     -0.130957
0.71513      6.21519      8.10031        -0.041116      0.028805     -0.093285
3.59259      1.24451      4.06455         0.001999     -0.004278     -0.130957
0.72149      1.25008      8.09697         0.051417     -0.000575     -0.010569
3.59259      6.22254      4.06455         0.007559     -0.016609     -0.121626
7.17903      7.46695      8.10011         0.072571     -0.005807     -0.059647
1.43703      2.48902      4.06455        -0.002212     -0.001846     -0.124627
7.17903      2.48911      8.10011         0.072571      0.005807     -0.059647
1.43703      7.46705      4.06455        -0.002212      0.001846     -0.124627
-0.00100      7.46434      6.08368         0.003140      0.038700     -0.020348
2.87407      2.48902      2.03227         0.001080     -0.001330      0.134749
5.76446      2.45894     10.09569        -0.186003      0.316863      0.076434
-0.00100      2.49172      6.08368         0.003140     -0.038700     -0.020348
5.76446      7.49712     10.09569        -0.186003     -0.316863      0.076434
2.87407      7.46705      2.03227         0.001080      0.001330      0.134749
6.46647      8.71239      6.08226         0.013242     -0.013574     -0.021641
0.71852      3.73352      2.03227        -0.003372     -0.002105      0.136492
3.63119      3.80532     10.45317        -1.245911     -2.171839     -1.756707
6.47185      3.73483      6.07753         0.016649      0.031206      0.038440
3.58723      8.73012     10.09521         0.037026     -0.322046      0.116491
0.71852      8.71156      2.03227         0.003380     -0.003813      0.149012
6.47185      6.22123      6.07753         0.016649     -0.031206      0.038440
0.71852      1.24451      2.03227         0.003380      0.003813      0.149012
3.58723      1.22594     10.09521         0.037026      0.322046      0.116491
6.46647      1.24367      6.08226         0.013242      0.013574     -0.021641
3.63119      6.15074     10.45317        -1.245911      2.171839     -1.756707
0.71852      6.22254      2.03227        -0.003372      0.002105      0.136492
4.30968      4.97803     11.11291        -0.018932     -0.000000      2.147951
