Ni  H                                   
   1.00000000000000     
     8.6222037999999994    0.0000000000000000    0.0000000000000000
     0.0000000000000000    9.9560633000000003    0.0000000000000000
     0.0000000000000000    0.0000000000000000   24.1936378000000012
   Ni   H 
    80     1
Cartesian
2.87278      4.97803      8.10474        -0.000412      0.000000     -0.000840
5.74814      4.97803      4.06455        -0.013789      0.000000     -0.125431
5.74814      0.00000      4.06455         0.002521      0.000000     -0.144656
2.87415      0.00000      8.09562         0.000782      0.000000     -0.001397
1.43573      0.00000     10.10383         0.000024      0.000000     -0.001819
4.31079      4.97803      6.08532        -0.001825      0.000000      0.001281
7.18517      4.97803      2.03227         0.002294      0.000000      0.133851
1.41719      4.97803     10.10021        -0.003204      0.000000      0.001267
7.18517      0.00000      2.03227         0.000480      0.000000      0.138922
4.31110      0.00000      6.07980         0.000289      0.000000     -0.000370
7.90443      1.24125     10.10359        -0.000916     -0.001256     -0.001011
2.15544      6.22387      6.08202         0.001169     -0.000143     -0.000170
5.02962      6.22254      2.03227         0.002841      0.000561      0.136191
7.89891      6.22691     10.10134        -0.000026     -0.001477      0.000784
5.02962      1.24451      2.03227         0.001977     -0.000690      0.137705
2.15518      1.24271      6.07873         0.000427      0.000893     -0.001004
7.90443      8.71481     10.10359        -0.000916      0.001256     -0.001011
2.15544      3.73219      6.08202         0.001169      0.000143     -0.000170
5.02962      3.73352      2.03227         0.002841     -0.000561      0.136191
7.89891      3.72915     10.10134        -0.000026      0.001477      0.000784
5.02962      8.71156      2.03227         0.001977      0.000690      0.137705
2.15518      8.71335      6.07873         0.000427     -0.000893     -0.001004
5.74536      0.00000     10.10231         0.000531      0.000000      0.000172
0.00143      4.97803      6.07834        -0.000450      0.000000      0.000584
2.87407      4.97803      2.03227         0.000319      0.000000      0.148325
5.75569      4.97803     10.13916         0.001229      0.000000     -0.002158
2.87407      0.00000      2.03227         0.001607      0.000000      0.138773
0.00025      0.00000      6.08081        -0.001998      0.000000     -0.001760
7.18539      0.00000      8.09675         0.000487      0.000000     -0.001680
1.43703      4.97803      4.06455         0.007249      0.000000     -0.150465
7.17711      4.97803      8.10627        -0.000842      0.000000      0.000179
1.43703      0.00000      4.06455        -0.005310      0.000000     -0.175387
5.02831      1.24464      8.09580         0.000229     -0.000613     -0.001774
7.90369      6.22254      4.06455        -0.002929      0.000376     -0.134086
5.02866      6.22250      8.10481        -0.001245     -0.000952      0.000195
7.90369      1.24451      4.06455        -0.006917     -0.001558     -0.141552
5.02831      8.71143      8.09580         0.000229      0.000613     -0.001774
7.90369      3.73352      4.06455        -0.002929     -0.000376     -0.134086
5.02866      3.73356      8.10481        -0.001245      0.000952      0.000195
7.90369      8.71156      4.06455        -0.006917      0.001558     -0.141552
1.43391      7.46793     10.10154         0.000551     -0.000358      0.000098
4.30951      2.48954      6.08187        -0.001753     -0.000212     -0.000159
7.18517      2.48902      2.03227         0.003425      0.000376      0.136339
1.43391      2.48813     10.10154         0.000551      0.000358      0.000098
7.18517      7.46705      2.03227         0.003425     -0.000376      0.136339
4.30951      7.46653      6.08187        -0.001753      0.000212     -0.000159
2.87642      7.46051      8.10539        -0.000788      0.000076      0.000147
5.74814      2.48902      4.06455        -0.004256      0.004840     -0.135043
2.87642      2.49555      8.10539        -0.000788     -0.000076      0.000147
5.74814      7.46705      4.06455        -0.004256     -0.004840     -0.135043
0.72099      8.71004      8.09646         0.000483     -0.001293     -0.002095
3.59259      3.73352      4.06455         0.006131      0.008235     -0.125117
0.71445      3.73449      8.09523        -0.000579     -0.000408      0.000576
3.59259      8.71156      4.06455        -0.000325     -0.002865     -0.133904
0.71445      6.22157      8.09523        -0.000579      0.000408      0.000576
3.59259      1.24451      4.06455        -0.000325      0.002865     -0.133904
0.72099      1.24602      8.09646         0.000483      0.001293     -0.002095
3.59259      6.22254      4.06455         0.006131     -0.008235     -0.125117
7.18454      7.46867      8.09592         0.000683     -0.001117     -0.000506
1.43703      2.48902      4.06455         0.001241      0.007015     -0.131479
7.18454      2.48739      8.09592         0.000683      0.001117     -0.000506
1.43703      7.46705      4.06455         0.001241     -0.007015     -0.131479
-0.00029      7.46700      6.07985        -0.000376      0.001301     -0.001262
2.87407      2.48902      2.03227         0.002262     -0.001628      0.136831
5.75378      2.47406     10.10088         0.000551      0.000879      0.000394
-0.00029      2.48907      6.07985        -0.000376     -0.001301     -0.001262
5.75378      7.48200     10.10088         0.000551     -0.000879      0.000394
2.87407      7.46705      2.03227         0.002262      0.001628      0.136831
6.46588      8.71137      6.07976         0.001863      0.001668     -0.001144
0.71852      3.73352      2.03227         0.000004     -0.002086      0.137447
3.58353      3.72375     10.13933        -0.001206     -0.001250     -0.000367
6.46700      3.73479      6.08206         0.000004      0.000572      0.000316
3.59006      8.71230     10.10136        -0.000307      0.000724     -0.000007
0.71852      8.71156      2.03227         0.002568     -0.000810      0.144604
6.46700      6.22127      6.08206         0.000004     -0.000572      0.000316
0.71852      1.24451      2.03227         0.002568      0.000810      0.144604
3.59006      1.24376     10.10136        -0.000307     -0.000724     -0.000007
6.46588      1.24470      6.07976         0.001863     -0.001668     -0.001144
3.58353      6.23231     10.13933        -0.001206      0.001250     -0.000367
0.71852      6.22254      2.03227         0.000004      0.002086      0.137447
4.30874      4.97803     11.03134         0.000447      0.000000      0.000716
