Ni  H                                   
   1.00000000000000     
     8.6222037999999994    0.0000000000000000    0.0000000000000000
     0.0000000000000000    9.9560633000000003    0.0000000000000000
     0.0000000000000000    0.0000000000000000   24.1936378000000012
   Ni   H 
    80     1
Cartesian
2.87279      4.97803      8.10474        -0.000737     -0.000000     -0.000796
5.74814      4.97803      4.06455        -0.014003     -0.000000     -0.125367
5.74814      0.00000      4.06455         0.002473     -0.000000     -0.144630
2.87414      0.00000      8.09563         0.000779     -0.000000     -0.001452
1.43573      0.00000     10.10385         0.000091     -0.000000     -0.001731
4.31078      4.97803      6.08532        -0.001799     -0.000000      0.001442
7.18517      4.97803      2.03227         0.002240     -0.000000      0.133803
1.41719      4.97803     10.10022        -0.003057     -0.000000      0.001193
7.18517      0.00000      2.03227         0.000483     -0.000000      0.139113
4.31109      0.00000      6.07981         0.000304     -0.000000     -0.000459
7.90443      1.24124     10.10361        -0.000753     -0.000967     -0.001436
2.15544      6.22388      6.08202         0.001039     -0.000314     -0.000071
5.02962      6.22254      2.03227         0.002722      0.000519      0.136086
7.89891      6.22691     10.10134        -0.000036     -0.001320      0.000717
5.02962      1.24451      2.03227         0.001883     -0.000656      0.137854
2.15518      1.24271      6.07874         0.000316      0.000949     -0.001016
7.90443      8.71482     10.10361        -0.000753      0.000967     -0.001436
2.15544      3.73219      6.08202         0.001039      0.000314     -0.000071
5.02962      3.73352      2.03227         0.002722     -0.000519      0.136086
7.89891      3.72916     10.10134        -0.000036      0.001320      0.000717
5.02962      8.71156      2.03227         0.001883      0.000656      0.137854
2.15518      8.71335      6.07874         0.000316     -0.000949     -0.001016
5.74537      0.00000     10.10232         0.000390     -0.000000     -0.000282
0.00143      4.97803      6.07835        -0.000287     -0.000000      0.000569
2.87407      4.97803      2.03227         0.000406     -0.000000      0.148237
5.75569      4.97803     10.13916         0.001037     -0.000000     -0.002084
2.87407      0.00000      2.03227         0.001603     -0.000000      0.138803
0.00024      0.00000      6.08081        -0.001704     -0.000000     -0.001730
7.18539      0.00000      8.09677         0.000495     -0.000000     -0.001802
1.43703      4.97803      4.06455         0.007428     -0.000000     -0.150357
7.17712      4.97803      8.10627        -0.000807     -0.000000      0.000149
1.43703      0.00000      4.06455        -0.005207     -0.000000     -0.175285
5.02831      1.24464      8.09580         0.000209     -0.000460     -0.001594
7.90369      6.22254      4.06455        -0.002797      0.000339     -0.133966
5.02866      6.22250      8.10482        -0.001317     -0.000898      0.000068
7.90369      1.24451      4.06455        -0.006855     -0.001540     -0.141468
5.02831      8.71143      8.09580         0.000209      0.000460     -0.001594
7.90369      3.73352      4.06455        -0.002797     -0.000339     -0.133966
5.02866      3.73357      8.10482        -0.001317      0.000898      0.000068
7.90369      8.71156      4.06455        -0.006855      0.001540     -0.141468
1.43392      7.46793     10.10155         0.000380     -0.000303      0.000020
4.30950      2.48953      6.08187        -0.001691     -0.000011     -0.000023
7.18517      2.48902      2.03227         0.003406      0.000375      0.136387
1.43392      2.48813     10.10155         0.000380      0.000303      0.000020
7.18517      7.46705      2.03227         0.003406     -0.000375      0.136387
4.30950      7.46653      6.08187        -0.001691      0.000011     -0.000023
2.87641      7.46051      8.10539        -0.000733     -0.000029      0.000183
5.74814      2.48902      4.06455        -0.004382      0.004874     -0.134978
2.87641      2.49555      8.10539        -0.000733      0.000029      0.000183
5.74814      7.46705      4.06455        -0.004382     -0.004874     -0.134978
0.72099      8.71004      8.09647         0.000528     -0.001322     -0.002145
3.59259      3.73352      4.06455         0.006046      0.008325     -0.125090
0.71445      3.73450      8.09524        -0.000522     -0.000360      0.000446
3.59259      8.71156      4.06455        -0.000398     -0.002962     -0.133912
0.71445      6.22157      8.09524        -0.000522      0.000360      0.000446
3.59259      1.24451      4.06455        -0.000398      0.002962     -0.133912
0.72099      1.24602      8.09647         0.000528      0.001322     -0.002145
3.59259      6.22254      4.06455         0.006046     -0.008325     -0.125090
7.18454      7.46867      8.09593         0.000761     -0.001097     -0.000532
1.43703      2.48902      4.06455         0.001400      0.007090     -0.131400
7.18454      2.48740      8.09593         0.000761      0.001097     -0.000532
1.43703      7.46705      4.06455         0.001400     -0.007090     -0.131400
-0.00029      7.46700      6.07985        -0.000272      0.001194     -0.001112
2.87407      2.48902      2.03227         0.002298     -0.001576      0.136734
5.75379      2.47407     10.10089         0.000438      0.000821      0.000229
-0.00029      2.48907      6.07985        -0.000272     -0.001194     -0.001112
5.75379      7.48200     10.10089         0.000438     -0.000821      0.000229
2.87407      7.46705      2.03227         0.002298      0.001576      0.136734
6.46588      8.71137      6.07976         0.001816      0.001600     -0.001033
0.71852      3.73352      2.03227         0.000152     -0.002094      0.137429
3.58353      3.72375     10.13932        -0.001268     -0.001117     -0.000229
6.46700      3.73479      6.08206        -0.000104      0.000607      0.000427
3.59006      8.71230     10.10136        -0.000237      0.000626     -0.000163
0.71852      8.71156      2.03227         0.002661     -0.000814      0.144696
6.46700      6.22127      6.08206        -0.000104     -0.000607      0.000427
0.71852      1.24451      2.03227         0.002661      0.000814      0.144696
3.59006      1.24376     10.10136        -0.000237     -0.000626     -0.000163
6.46588      1.24469      6.07976         0.001816     -0.001600     -0.001033
3.58353      6.23231     10.13932        -0.001268      0.001117     -0.000229
0.71852      6.22254      2.03227         0.000152      0.002094      0.137429
4.30873      4.97803     11.03135         0.000490     -0.000000      0.000448
