Ni  H                                   
   1.00000000000000     
     8.6222037999999994    0.0000000000000000    0.0000000000000000
     0.0000000000000000    9.9560633000000003    0.0000000000000000
     0.0000000000000000    0.0000000000000000   24.1936378000000012
   Ni   H 
    80     1
Cartesian
2.87248      4.97803      8.10466         0.000398      0.000000      0.001123
5.74814      4.97803      4.06455        -0.014469      0.000000     -0.125366
5.74814      0.00000      4.06455         0.002467      0.000000     -0.145979
2.87437      0.00000      8.09519        -0.000707      0.000000     -0.000235
1.43569      0.00000     10.10319        -0.000067      0.000000     -0.000890
4.31061      4.97803      6.08555        -0.000609      0.000000     -0.001476
7.18517      4.97803      2.03227         0.002308      0.000000      0.133645
1.41676      4.97803     10.10025        -0.000439      0.000000      0.000404
7.18517      0.00000      2.03227         0.000433      0.000000      0.138809
4.31119      0.00000      6.07958         0.000315      0.000000     -0.000048
7.90437      1.24129     10.10300        -0.000827     -0.001711      0.000028
2.15547      6.22378      6.08194        -0.000251      0.000499      0.000092
5.02962      6.22254      2.03227         0.002822      0.000540      0.136132
7.89882      6.22680     10.10129        -0.000099     -0.000132      0.000441
5.02962      1.24451      2.03227         0.001938     -0.000682      0.137652
2.15522      1.24285      6.07846         0.000261     -0.000761     -0.000110
7.90437      8.71477     10.10300        -0.000827      0.001711      0.000028
2.15547      3.73228      6.08194        -0.000251     -0.000499      0.000092
5.02962      3.73352      2.03227         0.002822     -0.000540      0.136132
7.89882      3.72926     10.10129        -0.000099      0.000132      0.000441
5.02962      8.71156      2.03227         0.001938      0.000682      0.137652
2.15522      8.71322      6.07846         0.000261      0.000761     -0.000110
5.74535      0.00000     10.10205         0.000913      0.000000     -0.000085
0.00135      4.97803      6.07817         0.000075      0.000000      0.001598
2.87407      4.97803      2.03227         0.000366      0.000000      0.148318
5.75584      4.97803     10.13880        -0.001955      0.000000     -0.000171
2.87407      0.00000      2.03227         0.001611      0.000000      0.138676
0.00017      0.00000      6.08042         0.000598      0.000000     -0.000119
7.18542      0.00000      8.09622         0.000829      0.000000     -0.000137
1.43703      4.97803      4.06455         0.007226      0.000000     -0.151185
7.17692      4.97803      8.10617         0.000689      0.000000     -0.000050
1.43703      0.00000      4.06455        -0.004990      0.000000     -0.176605
5.02833      1.24457      8.09552         0.001345      0.000545     -0.000873
7.90369      6.22254      4.06455        -0.003182      0.000345     -0.134754
5.02847      6.22244      8.10473        -0.000817      0.000347      0.000807
7.90369      1.24451      4.06455        -0.006897     -0.001358     -0.143539
5.02833      8.71149      8.09552         0.001345     -0.000545     -0.000873
7.90369      3.73352      4.06455        -0.003182     -0.000345     -0.134754
5.02847      3.73363      8.10473        -0.000817     -0.000347      0.000807
7.90369      8.71156      4.06455        -0.006897      0.001358     -0.143539
1.43382      7.46795     10.10134         0.000255     -0.000230      0.000229
4.30933      2.48958      6.08186         0.000410     -0.000704     -0.000606
7.18517      2.48902      2.03227         0.003425      0.000419      0.136226
1.43382      2.48811     10.10134         0.000255      0.000230      0.000229
7.18517      7.46705      2.03227         0.003425     -0.000419      0.136226
4.30933      7.46648      6.08186         0.000410      0.000704     -0.000606
2.87639      7.46056      8.10536        -0.000799     -0.000310     -0.000316
5.74814      2.48902      4.06455        -0.004577      0.005094     -0.135116
2.87639      2.49551      8.10536        -0.000799      0.000310     -0.000316
5.74814      7.46705      4.06455        -0.004577     -0.005094     -0.135116
0.72109      8.70992      8.09594         0.000040      0.000716     -0.000654
3.59259      3.73352      4.06455         0.006347      0.008542     -0.125222
0.71429      3.73440      8.09512        -0.000139      0.001057      0.000360
3.59259      8.71156      4.06455        -0.000031     -0.003050     -0.134840
0.71429      6.22166      8.09512        -0.000139     -0.001057      0.000360
3.59259      1.24451      4.06455        -0.000031      0.003050     -0.134840
0.72109      1.24615      8.09594         0.000040     -0.000716     -0.000654
3.59259      6.22254      4.06455         0.006347     -0.008542     -0.125222
7.18462      7.46855      8.09567        -0.001346     -0.000747      0.000016
1.43703      2.48902      4.06455         0.001337      0.007468     -0.132457
7.18462      2.48751      8.09567        -0.001346      0.000747      0.000016
1.43703      7.46705      4.06455         0.001337     -0.007468     -0.132457
-0.00033      7.46712      6.07962         0.000102     -0.000277     -0.000584
2.87407      2.48902      2.03227         0.002273     -0.001599      0.136733
5.75373      2.47414     10.10080         0.000180      0.000422     -0.000836
-0.00033      2.48895      6.07962         0.000102      0.000277     -0.000584
5.75373      7.48193     10.10080         0.000180     -0.000422     -0.000836
2.87407      7.46705      2.03227         0.002273      0.001599      0.136733
6.46609      8.71142      6.07948        -0.000908      0.000029      0.000237
0.71852      3.73352      2.03227         0.000038     -0.002082      0.137373
3.58331      3.72363     10.13934         0.000109      0.000997     -0.000680
6.46695      3.73493      6.08203        -0.000652     -0.001268      0.000025
3.59006      8.71235     10.10120        -0.000312      0.000798     -0.000258
0.71852      8.71156      2.03227         0.002552     -0.000849      0.144518
6.46695      6.22114      6.08203        -0.000652      0.001268      0.000025
0.71852      1.24451      2.03227         0.002552      0.000849      0.144518
3.59006      1.24371     10.10120        -0.000312     -0.000798     -0.000258
6.46609      1.24464      6.07948        -0.000908     -0.000029      0.000237
3.58331      6.23244     10.13934         0.000109     -0.000997     -0.000680
0.71852      6.22254      2.03227         0.000038      0.002082      0.137373
4.30902      4.97803     11.03119        -0.000184      0.000000     -0.000277
