Ni  H                                   
   1.00000000000000     
     8.6222037999999994    0.0000000000000000    0.0000000000000000
     0.0000000000000000    9.9560633000000003    0.0000000000000000
     0.0000000000000000    0.0000000000000000   24.1936378000000012
   Ni   H 
    80     1
Cartesian
2.88007      4.97803      8.16368        -0.087883      0.000000     -0.166764
5.74814      4.97803      4.06455        -0.035668      0.000000     -0.020844
5.74814      0.00000      4.06455         0.002348      0.000000     -0.143810
2.88120      0.00000      8.10553        -0.009056      0.000000     -0.028209
1.43902      0.00000     10.10407        -0.016916      0.000000      0.022844
4.30996      4.97803      6.11902        -0.007911      0.000000     -0.060523
7.18517      4.97803      2.03227         0.005733      0.000000      0.136064
1.41567      4.97803     10.11822        -0.022325      0.000000      0.037296
7.18517      0.00000      2.03227         0.001464      0.000000      0.140594
4.31113      0.00000      6.08012         0.012104      0.000000      0.018435
7.90460      1.24451     10.10138        -0.002134     -0.040339      0.018182
2.15963      6.21646      6.10222        -0.032195      0.022649     -0.046809
5.02962      6.22254      2.03227         0.003087      0.000599      0.140635
7.90240      6.23028     10.11491        -0.056206     -0.035714     -0.012596
5.02962      1.24451      2.03227         0.000861     -0.000675      0.139558
2.16146      1.24854      6.08952        -0.004057     -0.017413     -0.033668
7.90460      8.71155     10.10138        -0.002134      0.040339      0.018182
2.15963      3.73960      6.10222        -0.032195     -0.022649     -0.046809
5.02962      3.73352      2.03227         0.003087     -0.000599      0.140635
7.90240      3.72579     10.11491        -0.056206      0.035714     -0.012596
5.02962      8.71156      2.03227         0.000861      0.000675      0.139558
2.16146      8.70753      6.08952        -0.004057      0.017413     -0.033668
5.74367      0.00000     10.09982         0.041783      0.000000      0.017901
-0.00688      4.97803      6.08707         0.006278      0.000000     -0.028633
2.87407      4.97803      2.03227         0.000935      0.000000      0.154027
5.74921      4.97803     10.20370         0.032898      0.000000     -0.005523
2.87407      0.00000      2.03227        -0.002529      0.000000      0.140113
0.00434      0.00000      6.08327         0.014441      0.000000      0.006712
7.18950      0.00000      8.09608         0.005305      0.000000     -0.007585
1.43703      4.97803      4.06455         0.005685      0.000000     -0.070298
7.16226      4.97803      8.12878         0.032295      0.000000      0.032184
1.43703      0.00000      4.06455         0.018786      0.000000     -0.122214
5.03024      1.24776      8.09885         0.005119     -0.005713      0.020969
7.90369      6.22254      4.06455        -0.029079     -0.005139     -0.083672
5.02252      6.21314      8.16280         0.037110      0.072044     -0.164822
7.90369      1.24451      4.06455        -0.003602     -0.003391     -0.133010
5.03024      8.70831      8.09885         0.005119      0.005713      0.020969
7.90369      3.73352      4.06455        -0.029079      0.005139     -0.083672
5.02252      3.74293      8.16280         0.037110     -0.072044     -0.164822
7.90369      8.71156      4.06455        -0.003602      0.003391     -0.133010
1.42840      7.46308     10.11503         0.066920      0.019085     -0.014707
4.31209      2.49880      6.10097        -0.010593     -0.025863     -0.053812
7.18517      2.48902      2.03227         0.004399      0.002669      0.138062
1.42840      2.49298     10.11503         0.066920     -0.019085     -0.014707
7.18517      7.46705      2.03227         0.004399     -0.002669      0.138062
4.31209      7.45726      6.10097        -0.010593      0.025863     -0.053812
2.88193      7.44733      8.12811        -0.018333      0.040043      0.039720
5.74814      2.48902      4.06455        -0.014274      0.022767     -0.080236
2.88193      2.50873      8.12811        -0.018333     -0.040043      0.039720
5.74814      7.46705      4.06455        -0.014274     -0.022767     -0.080236
0.72877      8.70384      8.10222        -0.020684      0.028271     -0.020121
3.59259      3.73352      4.06455         0.012996      0.027125     -0.016885
0.70677      3.73948      8.10319         0.024353     -0.014533      0.010334
3.59259      8.71156      4.06455         0.009280     -0.029056     -0.082863
0.70677      6.21658      8.10319         0.024353      0.014533      0.010334
3.59259      1.24451      4.06455         0.009280      0.029056     -0.082863
0.72877      1.25223      8.10222        -0.020684     -0.028271     -0.020121
3.59259      6.22254      4.06455         0.012996     -0.027125     -0.016885
7.18194      7.46887      8.09883         0.000793     -0.005940      0.022688
1.43703      2.48902      4.06455         0.021931      0.025418     -0.074752
7.18194      2.48720      8.09883         0.000793      0.005940      0.022688
1.43703      7.46705      4.06455         0.021931     -0.025418     -0.074752
0.00058      7.46692      6.08024        -0.003912     -0.013957      0.021126
2.87407      2.48902      2.03227        -0.000411     -0.005340      0.141682
5.75368      2.47515     10.11849         0.021201     -0.030121      0.015042
0.00058      2.48914      6.08024        -0.003912      0.013957      0.021126
5.75368      7.48091     10.11849         0.021201      0.030121      0.015042
2.87407      7.46705      2.03227        -0.000411      0.005340      0.141682
6.46556      8.71080      6.07956         0.007944      0.004810      0.004766
0.71852      3.73352      2.03227         0.002299     -0.002499      0.140273
3.58820      3.73125     10.20468        -0.023665     -0.039214     -0.008431
6.45777      3.73709      6.10091         0.026246     -0.013015     -0.051559
3.59487      8.71675     10.11495        -0.027362     -0.068715     -0.020170
0.71852      8.71156      2.03227         0.001242      0.000891      0.146208
6.45777      6.21897      6.10091         0.026246      0.013015     -0.051559
0.71852      1.24451      2.03227         0.001242     -0.000891      0.146208
3.59487      1.23932     10.11495        -0.027362      0.068715     -0.020170
6.46556      1.24527      6.07956         0.007944     -0.004810      0.004766
3.58820      6.22481     10.20468        -0.023665      0.039214     -0.008431
0.71852      6.22254      2.03227         0.002299      0.002499      0.140273
4.30943      4.97803     11.15810         0.003691      0.000000     -0.254031
