Ni  H                                   
   1.00000000000000     
     8.6222037999999994    0.0000000000000000    0.0000000000000000
     0.0000000000000000    9.9560633000000003    0.0000000000000000
     0.0000000000000000    0.0000000000000000   24.1936378000000012
   Ni   H 
    80     1
Cartesian
2.87122      4.97803      8.10911        -0.002886     -0.000000     -0.008388
5.74814      4.97803      4.06455        -0.015824     -0.000000     -0.112400
5.74814      0.00000      4.06455         0.003967     -0.000000     -0.132500
2.87634      0.00000      8.09826        -0.010871     -0.000000     -0.000497
1.43728      0.00000     10.10719        -0.001745     -0.000000     -0.003221
4.30946      4.97803      6.08793         0.003818     -0.000000     -0.010279
7.18517      4.97803      2.03227         0.002323     -0.000000      0.134366
1.41726      4.97803     10.10733        -0.006060     -0.000000     -0.010129
7.18517      0.00000      2.03227         0.000207     -0.000000      0.139605
4.31208      0.00000      6.08227        -0.002847     -0.000000     -0.009519
7.90528      1.24202     10.10791        -0.000881     -0.004254     -0.004304
2.15539      6.22474      6.08499        -0.006730     -0.013099     -0.006105
5.02962      6.22254      2.03227         0.002919      0.000423      0.136602
7.89900      6.22608     10.10894         0.001532      0.004055     -0.009047
5.02962      1.24451      2.03227         0.001792     -0.000745      0.138379
2.15573      1.24336      6.08035        -0.006251     -0.010470     -0.001208
7.90528      8.71405     10.10791        -0.000881      0.004254     -0.004304
2.15539      3.73132      6.08499        -0.006730      0.013099     -0.006105
5.02962      3.73352      2.03227         0.002919     -0.000423      0.136602
7.89900      3.72998     10.10894         0.001532     -0.004055     -0.009047
5.02962      8.71156      2.03227         0.001792      0.000745      0.138379
2.15573      8.71270      6.08035        -0.006251      0.010470     -0.001208
5.74755      0.00000     10.10722        -0.005409     -0.000000     -0.003727
-0.00006      4.97803      6.08156         0.017728     -0.000000     -0.001502
2.87407      4.97803      2.03227         0.000528     -0.000000      0.148912
5.75532      4.97803     10.14157        -0.007804     -0.000000      0.006413
2.87407      0.00000      2.03227         0.001732     -0.000000      0.139374
-0.00015      0.00000      6.08394         0.007803     -0.000000     -0.014776
7.18656      0.00000      8.10080        -0.000094     -0.000000     -0.004023
1.43703      4.97803      4.06455         0.006161     -0.000000     -0.131430
7.17718      4.97803      8.11250        -0.005103     -0.000000     -0.014537
1.43703      0.00000      4.06455        -0.006880     -0.000000     -0.162122
5.02986      1.24388      8.09953        -0.003112      0.011660     -0.004780
7.90369      6.22254      4.06455        -0.002253      0.000265     -0.121395
5.02677      6.22185      8.10766         0.007886      0.008200     -0.003635
7.90369      1.24451      4.06455        -0.005392     -0.000804     -0.126655
5.02986      8.71219      8.09953        -0.003112     -0.011660     -0.004780
7.90369      3.73352      4.06455        -0.002253     -0.000265     -0.121395
5.02677      3.73422      8.10766         0.007886     -0.008200     -0.003635
7.90369      8.71156      4.06455        -0.005392      0.000804     -0.126655
1.43469      7.46881     10.10705        -0.004145     -0.003641     -0.005813
4.30881      2.48951      6.08359         0.009716     -0.001797      0.001180
7.18517      2.48902      2.03227         0.003349      0.000252      0.136998
1.43469      2.48725     10.10705        -0.004145      0.003641     -0.005813
7.18517      7.46705      2.03227         0.003349     -0.000252      0.136998
4.30881      7.46655      6.08359         0.009716      0.001797      0.001180
2.87590      7.46154      8.10929         0.002887     -0.002232     -0.006390
5.74814      2.48902      4.06455        -0.003180      0.004963     -0.121309
2.87590      2.49453      8.10929         0.002887      0.002232     -0.006390
5.74814      7.46705      4.06455        -0.003180     -0.004963     -0.121309
0.72162      8.71026      8.10001         0.000926     -0.002873     -0.005373
3.59259      3.73352      4.06455         0.004805      0.009065     -0.113962
0.71373      3.73426      8.10121         0.004745      0.003945     -0.005593
3.59259      8.71156      4.06455         0.000664     -0.001343     -0.124538
0.71373      6.22180      8.10121         0.004745     -0.003945     -0.005593
3.59259      1.24451      4.06455         0.000664      0.001343     -0.124538
0.72162      1.24581      8.10001         0.000926      0.002873     -0.005373
3.59259      6.22254      4.06455         0.004805     -0.009065     -0.113962
7.18516      7.46731      8.10051        -0.005362      0.003911     -0.005085
1.43703      2.48902      4.06455        -0.000534      0.007933     -0.119484
7.18516      2.48875      8.10051        -0.005362     -0.003911     -0.005085
1.43703      7.46705      4.06455        -0.000534     -0.007933     -0.119484
-0.00041      7.46605      6.08289         0.001525      0.008315     -0.009279
2.87407      2.48902      2.03227         0.002338     -0.001348      0.137146
5.75380      2.47506     10.10473         0.002414     -0.002613     -0.003407
-0.00041      2.49002      6.08289         0.001525     -0.008315     -0.009279
5.75380      7.48100     10.10473         0.002414      0.002613     -0.003407
2.87407      7.46705      2.03227         0.002338      0.001348      0.137146
6.46645      8.71156      6.08239         0.000158     -0.005669     -0.007622
0.71852      3.73352      2.03227        -0.000010     -0.002125      0.138224
3.58212      3.72296     10.14238         0.008786      0.007203      0.003587
6.46740      3.73557      6.08451        -0.010240     -0.007511     -0.001076
3.59148      8.71211     10.10571        -0.001227      0.005612     -0.005538
0.71852      8.71156      2.03227         0.002383     -0.000844      0.145387
6.46740      6.22049      6.08451        -0.010240      0.007511     -0.001076
0.71852      1.24451      2.03227         0.002383      0.000844      0.145387
3.59148      1.24395     10.10571        -0.001227     -0.005612     -0.005538
6.46645      1.24451      6.08239         0.000158      0.005669     -0.007622
3.58212      6.23311     10.14238         0.008786     -0.007203      0.003587
0.71852      6.22254      2.03227        -0.000010      0.002125      0.138224
4.30717      4.97803     11.03366         0.002239     -0.000000     -0.001431
