Ni  H                                   
   1.00000000000000     
     8.6222037999999994    0.0000000000000000    0.0000000000000000
     0.0000000000000000    9.9560633000000003    0.0000000000000000
     0.0000000000000000    0.0000000000000000   24.1936378000000012
   Ni   H 
    80     1
Cartesian
2.86633      4.97803      8.12848         0.031856     -0.000000     -0.007814
5.74814      4.97803      4.06455        -0.029912     -0.000000     -0.070030
5.74814      0.00000      4.06455         0.004382     -0.000000     -0.133657
2.87953      0.00000      8.10171        -0.014989     -0.000000      0.002533
1.43727      0.00000     10.10850         0.014311     -0.000000     -0.007842
4.30763      4.97803      6.10301         0.002520     -0.000000     -0.043985
7.18517      4.97803      2.03227         0.003521     -0.000000      0.135006
1.41001      4.97803     10.12639         0.020694     -0.000000     -0.052941
7.18517      0.00000      2.03227         0.000453     -0.000000      0.139922
4.31464      0.00000      6.08405        -0.005104     -0.000000     -0.009992
7.90719      1.23876     10.10615         0.001149      0.012059      0.005475
2.15347      6.22329      6.09183         0.002636     -0.010404     -0.003128
5.02962      6.22254      2.03227         0.002958      0.000326      0.138696
7.89327      6.22713     10.11491         0.027619      0.010208      0.001784
5.02962      1.24451      2.03227         0.000878     -0.000491      0.139578
2.16020      1.24566      6.08250        -0.016062     -0.016323      0.008936
7.90719      8.71731     10.10615         0.001149     -0.012059      0.005475
2.15347      3.73277      6.09183         0.002636      0.010404     -0.003128
5.02962      3.73352      2.03227         0.002958     -0.000326      0.138696
7.89327      3.72894     10.11491         0.027619     -0.010208      0.001784
5.02962      8.71156      2.03227         0.000878      0.000491      0.139578
2.16020      8.71040      6.08250        -0.016062      0.016323      0.008936
5.74955      0.00000     10.10528        -0.008216     -0.000000      0.014190
-0.00533      4.97803      6.08392         0.030710     -0.000000      0.019649
2.87407      4.97803      2.03227         0.000960     -0.000000      0.151287
5.75450      4.97803     10.17121        -0.033299     -0.000000     -0.038070
2.87407      0.00000      2.03227        -0.000552     -0.000000      0.140553
0.00654      0.00000      6.08160        -0.013329     -0.000000     -0.005580
7.18968      0.00000      8.09386        -0.005022     -0.000000      0.024203
1.43703      4.97803      4.06455         0.004561     -0.000000     -0.103240
7.17154      4.97803      8.12468        -0.001317     -0.000000     -0.041867
1.43703      0.00000      4.06455         0.008217     -0.000000     -0.156996
5.03132      1.24432      8.10422        -0.001460      0.015533     -0.010639
7.90369      6.22254      4.06455        -0.011609      0.000464     -0.104435
5.02748      6.22397      8.12745        -0.009253     -0.019259     -0.011603
7.90369      1.24451      4.06455        -0.001662      0.001419     -0.126153
5.03132      8.71174      8.10422        -0.001460     -0.015533     -0.010639
7.90369      3.73352      4.06455        -0.011609     -0.000464     -0.104435
5.02748      3.73210      8.12745        -0.009253      0.019259     -0.011603
7.90369      8.71156      4.06455        -0.001662     -0.001419     -0.126153
1.43603      7.46732     10.11393        -0.026870     -0.000689     -0.004963
4.30797      2.49184      6.09005         0.015790     -0.004831      0.001306
7.18517      2.48902      2.03227         0.004131      0.000660      0.137816
1.43603      2.48874     10.11393        -0.026870      0.000689     -0.004963
7.18517      7.46705      2.03227         0.004131     -0.000660      0.137816
4.30797      7.46422      6.09005         0.015790      0.004831      0.001306
2.87716      7.45792      8.12451         0.003744     -0.004427     -0.052519
5.74814      2.48902      4.06455        -0.009297      0.010558     -0.101906
2.87716      2.49814      8.12451         0.003744      0.004427     -0.052519
5.74814      7.46705      4.06455        -0.009297     -0.010558     -0.101906
0.72383      8.70899      8.09968         0.009302     -0.000779      0.005216
3.59259      3.73352      4.06455         0.005621      0.018990     -0.067721
0.71038      3.73495      8.10841         0.004862      0.013827     -0.007105
3.59259      8.71156      4.06455         0.008578     -0.007218     -0.108461
0.71038      6.22112      8.10841         0.004862     -0.013827     -0.007105
3.59259      1.24451      4.06455         0.008578      0.007218     -0.108461
0.72383      1.24708      8.09968         0.009302      0.000779      0.005216
3.59259      6.22254      4.06455         0.005621     -0.018990     -0.067721
7.18457      7.46865      8.10500        -0.010652     -0.001587     -0.010832
1.43703      2.48902      4.06455         0.003011      0.012771     -0.099955
7.18457      2.48741      8.10500        -0.010652      0.001587     -0.010832
1.43703      7.46705      4.06455         0.003011     -0.012771     -0.099955
-0.00056      7.46504      6.08469         0.001008      0.011335     -0.010385
2.87407      2.48902      2.03227         0.001155     -0.002084      0.138425
5.75769      2.46928     10.12235        -0.019393      0.025440     -0.045069
-0.00056      2.49102      6.08469         0.001008     -0.011335     -0.010385
5.75769      7.48678     10.12235        -0.019393     -0.025440     -0.045069
2.87407      7.46705      2.03227         0.001155      0.002084      0.138425
6.46784      8.71138      6.08150        -0.005987     -0.011591      0.002763
0.71852      3.73352      2.03227         0.000475     -0.002680      0.139275
3.58346      3.72435     10.17180         0.012661      0.024001     -0.036494
6.46401      3.73558      6.09020        -0.006617     -0.004866      0.002204
3.59188      8.70921     10.11255         0.008990      0.035662     -0.004918
0.71852      8.71156      2.03227         0.001278     -0.001327      0.145832
6.46401      6.22049      6.09020        -0.006617      0.004866      0.002204
0.71852      1.24451      2.03227         0.001278      0.001327      0.145832
3.59188      1.24685     10.11255         0.008990     -0.035662     -0.004918
6.46784      1.24468      6.08150        -0.005987      0.011591      0.002763
3.58346      6.23171     10.17180         0.012661     -0.024001     -0.036494
0.71852      6.22254      2.03227         0.000475      0.002680      0.139275
4.31011      4.97803     11.08013        -0.004409     -0.000000     -0.077368
