Ni  H                                   
   1.00000000000000     
     8.6222037999999994    0.0000000000000000    0.0000000000000000
     0.0000000000000000    9.9560633000000003    0.0000000000000000
     0.0000000000000000    0.0000000000000000   24.1936378000000012
   Ni   H 
    80     1
Cartesian
2.87261      4.97803      8.08251         0.126510     -0.000000      0.517327
5.74814      4.97803      4.06455        -0.019057     -0.000000     -0.133581
5.74814      0.00000      4.06455         0.001898     -0.000000     -0.133266
2.87378      0.00000      8.09857         0.000901     -0.000000     -0.025552
1.43391      0.00000     10.10826        -0.006746     -0.000000     -0.015494
4.31194      4.97803      6.08594        -0.013521     -0.000000     -0.064681
7.18517      4.97803      2.03227         0.003190     -0.000000      0.126803
1.41499      4.97803     10.10089         0.183943     -0.000000      0.011439
7.18517      0.00000      2.03227         0.000080     -0.000000      0.143848
4.31306      0.00000      6.08314        -0.003153     -0.000000     -0.011217
7.90226      1.24275     10.10534         0.004040     -0.034685      0.000742
2.15186      6.22534      6.07970         0.026597      0.033685      0.025088
5.02962      6.22254      2.03227         0.003888     -0.000214      0.132095
7.91072      6.22833     10.09879        -0.182828     -0.053619      0.063489
5.02962      1.24451      2.03227         0.000726      0.001577      0.137936
2.15662      1.24048      6.08012         0.007192      0.047667      0.044419
7.90226      8.71331     10.10534         0.004040      0.034685      0.000742
2.15186      3.73073      6.07970         0.026597     -0.033685      0.025088
5.02962      3.73352      2.03227         0.003888      0.000214      0.132095
7.91072      3.72773     10.09879        -0.182828      0.053619      0.063489
5.02962      8.71156      2.03227         0.000726     -0.001577      0.137936
2.15662      8.71559      6.08012         0.007192     -0.047667      0.044419
5.74701      0.00000     10.10536        -0.001582     -0.000000     -0.001247
0.00146      4.97803      6.07884        -0.031905     -0.000000      0.056006
2.87407      4.97803      2.03227         0.002999     -0.000000      0.146455
5.69710      4.97803     10.30725         0.319115     -0.000000     -0.296181
2.87407      0.00000      2.03227         0.006807     -0.000000      0.140721
0.00254      0.00000      6.08410        -0.015234     -0.000000     -0.013742
7.18269      0.00000      8.09899         0.029408     -0.000000     -0.008688
1.43703      4.97803      4.06455         0.006170     -0.000000     -0.161458
7.16067      4.97803      8.12777        -0.074549     -0.000000      0.108644
1.43703      0.00000      4.06455        -0.008078     -0.000000     -0.175405
5.03110      1.24715      8.09967        -0.032615     -0.027286     -0.025083
7.90369      6.22254      4.06455         0.002348     -0.001507     -0.131028
5.03074      6.22585      8.08247        -0.065560     -0.133441      0.516783
7.90369      1.24451      4.06455        -0.007028     -0.001832     -0.127484
5.03110      8.70891      8.09967        -0.032615      0.027286     -0.025083
7.90369      3.73352      4.06455         0.002348      0.001507     -0.131028
5.03074      3.73022      8.08247        -0.065560      0.133441      0.516783
7.90369      8.71156      4.06455        -0.007028      0.001832     -0.127484
1.42618      7.47400     10.10026         0.161423     -0.092874      0.047687
4.30945      2.48714      6.07962        -0.032046     -0.007203      0.015283
7.18517      2.48902      2.03227         0.002620      0.001656      0.135285
1.42618      2.48206     10.10026         0.161423      0.092874      0.047687
7.18517      7.46705      2.03227         0.002620     -0.001656      0.135285
4.30945      7.46892      6.07962        -0.032046      0.007203      0.015283
2.88712      7.44563      8.12617         0.015019     -0.058460      0.121253
5.74814      2.48902      4.06455        -0.001028     -0.000879     -0.140097
2.88712      2.51043      8.12617         0.015019      0.058460      0.121253
5.74814      7.46705      4.06455        -0.001028      0.000879     -0.140097
0.72030      8.70832      8.09836         0.035616     -0.009380     -0.008691
3.59259      3.73352      4.06455         0.008451      0.012908     -0.124879
0.71662      3.73778      8.10030        -0.034446     -0.006232     -0.055701
3.59259      8.71156      4.06455        -0.002200      0.000497     -0.129195
0.71662      6.21828      8.10030        -0.034446      0.006232     -0.055701
3.59259      1.24451      4.06455        -0.002200     -0.000497     -0.129195
0.72030      1.24774      8.09836         0.035616      0.009380     -0.008691
3.59259      6.22254      4.06455         0.008451     -0.012908     -0.124879
7.18167      7.46699      8.10018         0.034604     -0.001473     -0.036262
1.43703      2.48902      4.06455         0.002300      0.000168     -0.122964
7.18167      2.48907      8.10018         0.034604      0.001473     -0.036262
1.43703      7.46705      4.06455         0.002300     -0.000168     -0.122964
-0.00045      7.46548      6.08283         0.001484      0.018876     -0.009139
2.87407      2.48902      2.03227         0.000382     -0.001774      0.136345
5.75656      2.47158     10.10005        -0.090263      0.150076      0.016444
-0.00045      2.49058      6.08283         0.001484     -0.018876     -0.009139
5.75656      7.48448     10.10005        -0.090263     -0.150076      0.016444
2.87407      7.46705      2.03227         0.000382      0.001774      0.136345
6.46667      8.71204      6.08200         0.007254     -0.007041     -0.011955
0.71852      3.73352      2.03227        -0.003044     -0.002994      0.137447
3.61393      3.77514     10.30726        -0.157048     -0.281477     -0.292179
6.46979      3.73428      6.07926         0.016532      0.021070      0.021625
3.58845      8.72232     10.09977         0.020755     -0.187176      0.049798
0.71852      8.71156      2.03227         0.002397     -0.006638      0.149052
6.46979      6.22178      6.07926         0.016532     -0.021070      0.021625
0.71852      1.24451      2.03227         0.002397      0.006638      0.149052
3.58845      1.23375     10.09977         0.020755      0.187176      0.049798
6.46667      1.24402      6.08200         0.007254      0.007041     -0.011955
3.61393      6.18092     10.30726        -0.157048      0.281477     -0.292179
0.71852      6.22254      2.03227        -0.003044      0.002994      0.137447
4.30924      4.97803     11.53038         0.001764     -0.000000     -1.282959
