Ni  H                                   
   1.00000000000000     
     8.6222037999999994    0.0000000000000000    0.0000000000000000
     0.0000000000000000    9.9560633000000003    0.0000000000000000
     0.0000000000000000    0.0000000000000000   24.1936378000000012
   Ni   H 
    80     1
Cartesian
2.87096      4.97803      8.10661         0.010502      0.000000     -0.004298
5.74814      4.97803      4.06455        -0.013802      0.000000     -0.118386
5.74814      0.00000      4.06455         0.004250      0.000000     -0.136512
2.87411      0.00000      8.09719         0.005762      0.000000      0.001734
1.43557      0.00000     10.10623         0.006341      0.000000     -0.000523
4.31053      4.97803      6.08639        -0.001793      0.000000     -0.000676
7.18517      4.97803      2.03227         0.002187      0.000000      0.134315
1.41709      4.97803     10.10433        -0.002431      0.000000     -0.006507
7.18517      0.00000      2.03227         0.000222      0.000000      0.139680
4.31121      0.00000      6.08049         0.000090      0.000000      0.002190
7.90491      1.24229     10.10704        -0.002782     -0.008793     -0.005246
2.15506      6.22409      6.08298         0.003061     -0.001684      0.001650
5.02962      6.22254      2.03227         0.002756      0.000552      0.136531
7.89952      6.22665     10.10609        -0.001574     -0.001808     -0.009217
5.02962      1.24451      2.03227         0.001931     -0.000599      0.138204
2.15472      1.24281      6.07976         0.003822     -0.000277     -0.001631
7.90491      8.71377     10.10704        -0.002782      0.008793     -0.005246
2.15506      3.73197      6.08298         0.003061      0.001684      0.001650
5.02962      3.73352      2.03227         0.002756     -0.000552      0.136531
7.89952      3.72941     10.10609        -0.001574      0.001808     -0.009217
5.02962      8.71156      2.03227         0.001931      0.000599      0.138204
2.15472      8.71325      6.07976         0.003822      0.000277     -0.001631
5.74545      0.00000     10.10553         0.005589      0.000000     -0.003796
0.00124      4.97803      6.07980         0.002205      0.000000      0.002693
2.87407      4.97803      2.03227         0.000399      0.000000      0.148573
5.75514      4.97803     10.14041         0.002819      0.000000      0.000418
2.87407      0.00000      2.03227         0.001675      0.000000      0.139241
0.00112      0.00000      6.08252        -0.011319      0.000000     -0.005891
7.18570      0.00000      8.09985         0.002578      0.000000     -0.005519
1.43703      4.97803      4.06455         0.006612      0.000000     -0.144244
7.17730      4.97803      8.10969        -0.002476      0.000000     -0.007293
1.43703      0.00000      4.06455        -0.005485      0.000000     -0.170191
5.02947      1.24426      8.09770        -0.006306      0.001908     -0.001888
7.90369      6.22254      4.06455        -0.002307      0.000048     -0.127947
5.02786      6.22283      8.10603         0.001097     -0.003566     -0.001359
7.90369      1.24451      4.06455        -0.006722     -0.002262     -0.133113
5.02947      8.71181      8.09770        -0.006306     -0.001908     -0.001888
7.90369      3.73352      4.06455        -0.002307     -0.000048     -0.127947
5.02786      3.73323      8.10603         0.001097      0.003566     -0.001359
7.90369      8.71156      4.06455        -0.006722      0.002262     -0.133113
1.43440      7.46838     10.10531         0.000954     -0.002471     -0.007795
4.30915      2.48901      6.08281         0.000707      0.002929     -0.000269
7.18517      2.48902      2.03227         0.003228      0.000390      0.136796
1.43440      2.48769     10.10531         0.000954      0.002471     -0.007795
7.18517      7.46705      2.03227         0.003228     -0.000390      0.136796
4.30915      7.46705      6.08281         0.000707     -0.002929     -0.000269
2.87628      7.46144      8.10753        -0.000752     -0.003583     -0.002942
5.74814      2.48902      4.06455        -0.004147      0.004761     -0.128041
2.87628      2.49462      8.10753        -0.000752      0.003583     -0.002942
5.74814      7.46705      4.06455        -0.004147     -0.004761     -0.128041
0.72096      8.71058      8.09912         0.001082     -0.008859     -0.005357
3.59259      3.73352      4.06455         0.005832      0.008276     -0.119262
0.71450      3.73436      8.09822        -0.000725     -0.000979     -0.000891
3.59259      8.71156      4.06455        -0.001242     -0.002748     -0.129385
0.71450      6.22170      8.09822        -0.000725      0.000979     -0.000891
3.59259      1.24451      4.06455        -0.001242      0.002748     -0.129385
0.72096      1.24548      8.09912         0.001082      0.008859     -0.005357
3.59259      6.22254      4.06455         0.005832     -0.008276     -0.119262
7.18528      7.46801      8.09865        -0.001439     -0.000202     -0.003157
1.43703      2.48902      4.06455         0.000621      0.007077     -0.126357
7.18528      2.48805      8.09865        -0.001439      0.000202     -0.003157
1.43703      7.46705      4.06455         0.000621     -0.007077     -0.126357
-0.00033      7.46682      6.08114         0.000715      0.002728     -0.000557
2.87407      2.48902      2.03227         0.002293     -0.001422      0.137173
5.75457      2.47467     10.10301        -0.002838     -0.000636     -0.000930
-0.00033      2.48924      6.08114         0.000715     -0.002728     -0.000557
5.75457      7.48139     10.10301        -0.002838      0.000636     -0.000930
2.87407      7.46705      2.03227         0.002293      0.001422      0.137173
6.46624      8.71093      6.08142         0.002620      0.007999     -0.005545
0.71852      3.73352      2.03227        -0.000065     -0.002015      0.137868
3.58334      3.72386     10.14083        -0.001390     -0.004198     -0.001716
6.46752      3.73474      6.08327        -0.006009      0.002693      0.001129
3.59119      8.71222     10.10409        -0.004204      0.002100     -0.005401
0.71852      8.71156      2.03227         0.002444     -0.000940      0.145113
6.46752      6.22133      6.08327        -0.006009     -0.002693      0.001129
0.71852      1.24451      2.03227         0.002444      0.000940      0.145113
3.59119      1.24384     10.10409        -0.004204     -0.002100     -0.005401
6.46624      1.24514      6.08142         0.002620     -0.007999     -0.005545
3.58334      6.23220     10.14083        -0.001390      0.004198     -0.001716
0.71852      6.22254      2.03227        -0.000065      0.002015      0.137868
4.30696      4.97803     11.03267         0.004754      0.000000      0.002076
