Ni  H                                   
   1.00000000000000     
     8.6222037999999994    0.0000000000000000    0.0000000000000000
     0.0000000000000000    9.9560633000000003    0.0000000000000000
     0.0000000000000000    0.0000000000000000   24.1936378000000012
   Ni   H 
    80     1
Cartesian
2.87311      4.97803      8.08802         0.101718     -0.000000      0.374642
5.74814      4.97803      4.06455        -0.018106     -0.000000     -0.133248
5.74814      0.00000      4.06455         0.002490     -0.000000     -0.132978
2.87392      0.00000      8.09910         0.000941     -0.000000     -0.018408
1.43412      0.00000     10.10758        -0.004981     -0.000000     -0.007504
4.31177      4.97803      6.08461        -0.008507     -0.000000     -0.036295
7.18517      4.97803      2.03227         0.003224     -0.000000      0.128717
1.42106      4.97803     10.10250         0.100488     -0.000000     -0.005958
7.18517      0.00000      2.03227         0.000845     -0.000000      0.143589
4.31255      0.00000      6.08268        -0.000308     -0.000000     -0.005326
7.90194      1.24330     10.10556         0.004158     -0.026238     -0.000103
2.15310      6.22447      6.08031         0.013507      0.027500      0.016031
5.02962      6.22254      2.03227         0.003320      0.000319      0.132053
7.90778      6.22653     10.10105        -0.116865     -0.031021      0.032200
5.02962      1.24451      2.03227         0.001117      0.001722      0.138367
2.15638      1.24173      6.08059         0.005799      0.027883      0.029234
7.90194      8.71277     10.10556         0.004158      0.026238     -0.000103
2.15310      3.73159      6.08031         0.013507     -0.027500      0.016031
5.02962      3.73352      2.03227         0.003320     -0.000319      0.132053
7.90778      3.72953     10.10105        -0.116865      0.031021      0.032200
5.02962      8.71156      2.03227         0.001117     -0.001722      0.138367
2.15638      8.71434      6.08059         0.005799     -0.027883      0.029234
5.74659      0.00000     10.10558         0.000825     -0.000000     -0.001511
0.00110      4.97803      6.07971        -0.020419     -0.000000      0.035755
2.87407      4.97803      2.03227         0.003985     -0.000000      0.146384
5.71215      4.97803     10.24489         0.033192     -0.000000      0.114829
2.87407      0.00000      2.03227         0.007002     -0.000000      0.142241
0.00185      0.00000      6.08334        -0.007125     -0.000000     -0.006088
7.18350      0.00000      8.09939         0.016763     -0.000000     -0.007689
1.43703      4.97803      4.06455         0.006756     -0.000000     -0.160518
7.16831      4.97803      8.11925        -0.095851     -0.000000      0.128557
1.43703      0.00000      4.06455        -0.008368     -0.000000     -0.174464
5.03069      1.24633      8.09986        -0.019484     -0.016109     -0.018694
7.90369      6.22254      4.06455         0.002879     -0.002530     -0.128545
5.03044      6.22482      8.08799        -0.051669     -0.102288      0.373742
7.90369      1.24451      4.06455        -0.007351     -0.002460     -0.129198
5.03069      8.70973      8.09986        -0.019484      0.016109     -0.018694
7.90369      3.73352      4.06455         0.002879      0.002530     -0.128545
5.03044      3.73124      8.08799        -0.051669      0.102288      0.373742
7.90369      8.71156      4.06455        -0.007351      0.002460     -0.129198
1.42878      7.47185     10.10206         0.101440     -0.056817      0.022794
4.31006      2.48772      6.08025        -0.025247     -0.008069      0.008671
7.18517      2.48902      2.03227         0.002730      0.001447      0.134450
1.42878      2.48422     10.10206         0.101440      0.056817      0.022794
7.18517      7.46705      2.03227         0.002730     -0.001447      0.134450
4.31006      7.46834      6.08025        -0.025247      0.008069      0.008671
2.88312      7.45227      8.11814         0.035637     -0.081868      0.135855
5.74814      2.48902      4.06455        -0.001235     -0.001204     -0.139718
2.88312      2.50379      8.11814         0.035637      0.081868      0.135855
5.74814      7.46705      4.06455        -0.001235      0.001204     -0.139718
0.71980      8.70933      8.09895         0.027312     -0.011095     -0.007957
3.59259      3.73352      4.06455         0.008452      0.010821     -0.125872
0.71725      3.73646      8.10029        -0.028971      0.001892     -0.038445
3.59259      8.71156      4.06455        -0.004313     -0.000913     -0.128714
0.71725      6.21960      8.10029        -0.028971     -0.001892     -0.038445
3.59259      1.24451      4.06455        -0.004313      0.000913     -0.128714
0.71980      1.24674      8.09895         0.027312      0.011095     -0.007957
3.59259      6.22254      4.06455         0.008452     -0.010821     -0.125872
7.18280      7.46701      8.10021         0.019816     -0.000312     -0.025807
1.43703      2.48902      4.06455         0.004118      0.000094     -0.122737
7.18280      2.48905      8.10021         0.019816      0.000312     -0.025807
1.43703      7.46705      4.06455         0.004118     -0.000094     -0.122737
-0.00022      7.46597      6.08246         0.000432      0.011013     -0.004459
2.87407      2.48902      2.03227        -0.000157     -0.001595      0.137341
5.75319      2.47699     10.10191        -0.049061      0.079383     -0.002727
-0.00022      2.49010      6.08246         0.000432     -0.011013     -0.004459
5.75319      7.47908     10.10191        -0.049061     -0.079383     -0.002727
2.87407      7.46705      2.03227        -0.000157      0.001595      0.137341
6.46676      8.71189      6.08189         0.004820     -0.004414     -0.007891
0.71852      3.73352      2.03227        -0.003070     -0.003787      0.137397
3.60655      3.76224     10.24490        -0.015864     -0.032645      0.117185
6.46891      3.73405      6.08000         0.015172      0.015427      0.013174
3.58897      8.71898     10.10172         0.012103     -0.117765      0.023749
0.71852      8.71156      2.03227         0.001832     -0.008306      0.148052
6.46891      6.22202      6.08000         0.015172     -0.015427      0.013174
0.71852      1.24451      2.03227         0.001832      0.008306      0.148052
3.58897      1.23708     10.10172         0.012103      0.117765      0.023749
6.46676      1.24417      6.08189         0.004820      0.004414     -0.007891
3.60655      6.19382     10.24490        -0.015864      0.032645      0.117185
0.71852      6.22254      2.03227        -0.003070      0.003787      0.137397
4.30906      4.97803     11.70880         0.002722     -0.000000     -1.963577
