Ni  H                                   
   1.00000000000000     
     8.6222037999999994    0.0000000000000000    0.0000000000000000
     0.0000000000000000    9.9560633000000003    0.0000000000000000
     0.0000000000000000    0.0000000000000000   24.1936378000000012
   Ni   H 
    80     1
Cartesian
2.87103      4.97803      8.11349        -0.001875     -0.000000     -0.009218
5.74814      4.97803      4.06455        -0.015036     -0.000000     -0.104888
5.74814      0.00000      4.06455         0.004926     -0.000000     -0.129833
2.87732      0.00000      8.10037        -0.004800     -0.000000     -0.009233
1.43980      0.00000     10.10813        -0.014681     -0.000000     -0.004306
4.30812      4.97803      6.08830         0.005503     -0.000000      0.005982
7.18517      4.97803      2.03227         0.002454     -0.000000      0.135016
1.41545      4.97803     10.11241         0.003720     -0.000000     -0.011059
7.18517      0.00000      2.03227        -0.000046     -0.000000      0.139781
4.31355      0.00000      6.08321        -0.005005     -0.000000     -0.003790
7.90659      1.24041     10.10849        -0.003694      0.006634     -0.004149
2.15388      6.22329      6.08732         0.005767      0.009642     -0.009212
5.02962      6.22254      2.03227         0.003123      0.000489      0.136846
7.89759      6.22684     10.11289         0.001158     -0.002057     -0.016107
5.02962      1.24451      2.03227         0.001622     -0.000538      0.138773
2.15627      1.24201      6.08143         0.000386      0.009742     -0.004648
7.90659      8.71566     10.10849        -0.003694     -0.006634     -0.004149
2.15388      3.73277      6.08732         0.005767     -0.009642     -0.009212
5.02962      3.73352      2.03227         0.003123     -0.000489      0.136846
7.89759      3.72922     10.11289         0.001158      0.002057     -0.016107
5.02962      8.71156      2.03227         0.001622      0.000538      0.138773
2.15627      8.71406      6.08143         0.000386     -0.009742     -0.004648
5.74961      0.00000     10.10946        -0.011532     -0.000000     -0.013369
0.00149      4.97803      6.08520        -0.013873     -0.000000     -0.016540
2.87407      4.97803      2.03227         0.000355     -0.000000      0.149077
5.75376      4.97803     10.14755         0.009731     -0.000000     -0.010554
2.87407      0.00000      2.03227         0.001171     -0.000000      0.139844
0.00078      0.00000      6.08193         0.002493     -0.000000      0.006311
7.18811      0.00000      8.10038        -0.007315     -0.000000     -0.005443
1.43703      4.97803      4.06455         0.003661     -0.000000     -0.123295
7.17485      4.97803      8.11430         0.006836     -0.000000     -0.002452
1.43703      0.00000      4.06455        -0.003004     -0.000000     -0.164484
5.03016      1.24576      8.10220         0.000098     -0.011576     -0.010291
7.90369      6.22254      4.06455        -0.003915     -0.003285     -0.105582
5.02649      6.22181      8.11166         0.001721      0.000831     -0.006172
7.90369      1.24451      4.06455        -0.005733      0.001821     -0.129024
5.03016      8.71030      8.10220         0.000098      0.011576     -0.010291
7.90369      3.73352      4.06455        -0.003915      0.003285     -0.105582
5.02649      3.73426      8.11166         0.001721     -0.000831     -0.006172
7.90369      8.71156      4.06455        -0.005733     -0.001821     -0.129024
1.43381      7.46849     10.10991         0.005174      0.000078     -0.008986
4.30996      2.48950      6.08569        -0.009088     -0.000134     -0.007629
7.18517      2.48902      2.03227         0.003244      0.000279      0.137319
1.43381      2.48757     10.10991         0.005174     -0.000078     -0.008986
7.18517      7.46705      2.03227         0.003244     -0.000279      0.137319
4.30996      7.46657      6.08569        -0.009088      0.000134     -0.007629
2.87637      7.46051      8.11140        -0.000274      0.001356     -0.000757
5.74814      2.48902      4.06455        -0.004109      0.006493     -0.117185
2.87637      2.49556      8.11140        -0.000274     -0.001356     -0.000757
5.74814      7.46705      4.06455        -0.004109     -0.006493     -0.117185
0.72330      8.70925      8.10031        -0.008006      0.005397     -0.002148
3.59259      3.73352      4.06455         0.002068      0.005977     -0.104166
0.71302      3.73523      8.10613         0.000656     -0.005186     -0.021036
3.59259      8.71156      4.06455         0.002053     -0.002583     -0.116524
0.71302      6.22084      8.10613         0.000656      0.005186     -0.021036
3.59259      1.24451      4.06455         0.002053      0.002583     -0.116524
0.72330      1.24681      8.10031        -0.008006     -0.005397     -0.002148
3.59259      6.22254      4.06455         0.002068     -0.005977     -0.104166
7.18386      7.46742      8.10318         0.008354      0.001235     -0.010191
1.43703      2.48902      4.06455         0.001484      0.008750     -0.109906
7.18386      2.48864      8.10318         0.008354     -0.001235     -0.010191
1.43703      7.46705      4.06455         0.001484     -0.008750     -0.109906
-0.00038      7.46672      6.08384        -0.000957     -0.004031     -0.003875
2.87407      2.48902      2.03227         0.002239     -0.000994      0.137838
5.75341      2.47472     10.10906         0.005768     -0.002553     -0.008092
-0.00038      2.48934      6.08384        -0.000957      0.004031     -0.003875
5.75341      7.48135     10.10906         0.005768      0.002553     -0.008092
2.87407      7.46705      2.03227         0.002239      0.000994      0.137838
6.46705      8.71080      6.08248        -0.001569      0.003142     -0.000525
0.71852      3.73352      2.03227         0.000067     -0.001842      0.138609
3.58213      3.72320     10.14840        -0.000291     -0.002852     -0.010845
6.46494      3.73518      6.08666         0.013168      0.002258     -0.008710
3.59222      8.71349     10.10838        -0.002552     -0.009859     -0.007947
0.71852      8.71156      2.03227         0.002337     -0.000874      0.145542
6.46494      6.22089      6.08666         0.013168     -0.002258     -0.008710
0.71852      1.24451      2.03227         0.002337      0.000874      0.145542
3.59222      1.24257     10.10838        -0.002552      0.009859     -0.007947
6.46705      1.24526      6.08248        -0.001569     -0.003142     -0.000525
3.58213      6.23287     10.14840        -0.000291      0.002852     -0.010845
0.71852      6.22254      2.03227         0.000067      0.001842      0.138609
4.30845      4.97803     11.03804        -0.004273     -0.000000      0.010012
