Ni  H                                   
   1.00000000000000     
     8.6222037999999994    0.0000000000000000    0.0000000000000000
     0.0000000000000000    9.9560633000000003    0.0000000000000000
     0.0000000000000000    0.0000000000000000   24.1936378000000012
   Ni   H 
    80     1
Cartesian
2.87102      4.97803      8.11157         0.001428      0.000000     -0.003518
5.74814      4.97803      4.06455        -0.015013      0.000000     -0.106636
5.74814      0.00000      4.06455         0.003639      0.000000     -0.130949
2.87777      0.00000      8.10001        -0.013118      0.000000     -0.009674
1.43988      0.00000     10.10814        -0.018712      0.000000     -0.006654
4.30845      4.97803      6.08827         0.004686      0.000000     -0.002129
7.18517      4.97803      2.03227         0.002450      0.000000      0.135135
1.41617      4.97803     10.11026         0.002521      0.000000     -0.005152
7.18517      0.00000      2.03227         0.000038      0.000000      0.139705
4.31295      0.00000      6.08320        -0.001731      0.000000     -0.006355
7.90573      1.24055     10.10844         0.003011      0.009150     -0.003303
2.15443      6.22287      6.08713         0.002820      0.016077     -0.013523
5.02962      6.22254      2.03227         0.003004      0.000450      0.136897
7.89844      6.22602     10.11187        -0.002117      0.006275     -0.013116
5.02962      1.24451      2.03227         0.001553     -0.000714      0.138622
2.15606      1.24191      6.08112        -0.000846      0.010721     -0.003082
7.90573      8.71551     10.10844         0.003011     -0.009150     -0.003303
2.15443      3.73319      6.08713         0.002820     -0.016077     -0.013523
5.02962      3.73352      2.03227         0.003004     -0.000450      0.136897
7.89844      3.73005     10.11187        -0.002117     -0.006275     -0.013116
5.02962      8.71156      2.03227         0.001553      0.000714      0.138622
2.15606      8.71415      6.08112        -0.000846     -0.010721     -0.003082
5.74999      0.00000     10.10932        -0.019754      0.000000     -0.013651
0.00174      4.97803      6.08429        -0.014365      0.000000     -0.012691
2.87407      4.97803      2.03227         0.000208      0.000000      0.149077
5.75383      4.97803     10.14508         0.009924      0.000000     -0.006922
2.87407      0.00000      2.03227         0.001356      0.000000      0.139519
-0.00059      0.00000      6.08302         0.012763      0.000000     -0.001256
7.18805      0.00000      8.10156        -0.010037      0.000000     -0.013612
1.43703      4.97803      4.06455         0.004337      0.000000     -0.126062
7.17580      4.97803      8.11408         0.002874      0.000000     -0.009407
1.43703      0.00000      4.06455        -0.005956      0.000000     -0.162545
5.02982      1.24590      8.10165         0.002670     -0.015116     -0.010865
7.90369      6.22254      4.06455        -0.004157     -0.002390     -0.107218
5.02668      6.22201      8.10970        -0.000742     -0.002618     -0.000318
7.90369      1.24451      4.06455        -0.005129      0.001430     -0.127767
5.02982      8.71016      8.10165         0.002670      0.015116     -0.010865
7.90369      3.73352      4.06455        -0.004157      0.002390     -0.107218
5.02668      3.73405      8.10970        -0.000742      0.002618     -0.000318
7.90369      8.71156      4.06455        -0.005129     -0.001430     -0.127767
1.43425      7.46874     10.10876         0.000034     -0.001195     -0.003800
4.31045      2.48998      6.08521        -0.014939     -0.006732     -0.008016
7.18517      2.48902      2.03227         0.003224      0.000218      0.137406
1.43425      2.48733     10.10876         0.000034      0.001195     -0.003800
7.18517      7.46705      2.03227         0.003224     -0.000218      0.137406
4.31045      7.46608      6.08521        -0.014939      0.006732     -0.008016
2.87590      7.46119      8.11092         0.003263     -0.002354     -0.007989
5.74814      2.48902      4.06455        -0.003105      0.005962     -0.118883
2.87590      2.49488      8.11092         0.003263      0.002354     -0.007989
5.74814      7.46705      4.06455        -0.003105     -0.005962     -0.118883
0.72299      8.70902      8.10033        -0.007426      0.010247     -0.002420
3.59259      3.73352      4.06455         0.002264      0.006436     -0.106224
0.71347      3.73499      8.10517        -0.001413     -0.003404     -0.020754
3.59259      8.71156      4.06455         0.001787     -0.002820     -0.117174
0.71347      6.22107      8.10517        -0.001413      0.003404     -0.020754
3.59259      1.24451      4.06455         0.001787      0.002820     -0.117174
0.72299      1.24704      8.10033        -0.007426     -0.010247     -0.002420
3.59259      6.22254      4.06455         0.002264     -0.006436     -0.106224
7.18372      7.46699      8.10261         0.011042      0.005331     -0.010605
1.43703      2.48902      4.06455         0.001530      0.009305     -0.110244
7.18372      2.48907      8.10261         0.011042     -0.005331     -0.010605
1.43703      7.46705      4.06455         0.001530     -0.009305     -0.110244
-0.00022      7.46660      6.08383        -0.002562     -0.002985     -0.006405
2.87407      2.48902      2.03227         0.002109     -0.001144      0.137838
5.75300      2.47515     10.10697         0.008437     -0.003639     -0.000737
-0.00022      2.48946      6.08383        -0.002562      0.002985     -0.006405
5.75300      7.48092     10.10697         0.008437      0.003639     -0.000737
2.87407      7.46705      2.03227         0.002109      0.001144      0.137838
6.46685      8.71135      6.08234        -0.001454     -0.002520      0.001284
0.71852      3.73352      2.03227         0.000021     -0.001944      0.138565
3.58198      3.72303     10.14592         0.001933      0.000734     -0.007179
6.46482      3.73530      6.08644         0.018765      0.001027     -0.011916
3.59171      8.71320     10.10729         0.002014     -0.005536     -0.003303
0.71852      8.71156      2.03227         0.002321     -0.000726      0.145550
6.46482      6.22077      6.08644         0.018765     -0.001027     -0.011916
0.71852      1.24451      2.03227         0.002321      0.000726      0.145550
3.59171      1.24286     10.10729         0.002014      0.005536     -0.003303
6.46685      1.24471      6.08234        -0.001454      0.002520      0.001284
3.58198      6.23304     10.14592         0.001933     -0.000734     -0.007179
0.71852      6.22254      2.03227         0.000021      0.001944      0.138565
4.30805      4.97803     11.03508        -0.003362      0.000000      0.011138
