Ni  H                                   
   1.00000000000000     
     8.6222037999999994    0.0000000000000000    0.0000000000000000
     0.0000000000000000    9.9560633000000003    0.0000000000000000
     0.0000000000000000    0.0000000000000000   24.1936378000000012
   Ni   H 
    80     1
Cartesian
2.88573      4.97803      8.13445         0.003513     -0.000000      0.186488
5.74814      4.97803      4.06455        -0.010644     -0.000000     -0.127519
5.74814      0.00000      4.06455         0.000715     -0.000000     -0.138424
2.87358      0.00000      8.09466         0.027097     -0.000000      0.060164
1.43277      0.00000     10.10725         0.038729     -0.000000     -0.027009
4.31058      4.97803      6.07951        -0.002018     -0.000000      0.195725
7.18517      4.97803      2.03227         0.003893     -0.000000      0.128006
1.42963      4.97803     10.10075        -0.032988     -0.000000      0.056859
7.18517      0.00000      2.03227        -0.000792     -0.000000      0.143357
4.31335      0.00000      6.08233        -0.010982     -0.000000     -0.025570
7.90318      1.23784     10.10513         0.006758      0.046873     -0.020125
2.15344      6.23044      6.08183         0.042929     -0.080133      0.112495
5.02962      6.22254      2.03227         0.003735     -0.000016      0.132805
7.89281      6.22436     10.10379         0.018880      0.017703      0.058824
5.02962      1.24451      2.03227         0.001039      0.000319      0.137133
2.15784      1.24470      6.08488         0.007707      0.013663      0.026675
7.90318      8.71822     10.10513         0.006758     -0.046873     -0.020125
2.15344      3.72562      6.08183         0.042929      0.080133      0.112495
5.02962      3.73352      2.03227         0.003735      0.000016      0.132805
7.89281      3.73170     10.10379         0.018880     -0.017703      0.058824
5.02962      8.71156      2.03227         0.001039     -0.000319      0.137133
2.15784      8.71136      6.08488         0.007707     -0.013663      0.026675
5.74736      0.00000     10.10494        -0.037434     -0.000000     -0.023787
-0.00194      4.97803      6.08447        -0.011866     -0.000000      0.022962
2.87407      4.97803      2.03227         0.001810     -0.000000      0.146272
5.73675      4.97803     10.34052         0.337831     -0.000000     -0.774559
2.87407      0.00000      2.03227         0.002415     -0.000000      0.140429
0.00157      0.00000      6.08339         0.011538     -0.000000     -0.012204
7.18524      0.00000      8.09746         0.014476     -0.000000     -0.005947
1.43703      4.97803      4.06455         0.001771     -0.000000     -0.123597
7.14278      4.97803      8.15046         0.059733     -0.000000     -0.086155
1.43703      0.00000      4.06455         0.005072     -0.000000     -0.145802
5.02759      1.24493      8.09645         0.011021      0.021732      0.002399
7.90369      6.22254      4.06455         0.006377     -0.001893     -0.128082
5.02399      6.21221      8.13426        -0.017955     -0.016934      0.181983
7.90369      1.24451      4.06455        -0.004396     -0.000838     -0.135929
5.02759      8.71114      8.09645         0.011021     -0.021732      0.002399
7.90369      3.73352      4.06455         0.006377      0.001893     -0.128082
5.02399      3.74385      8.13426        -0.017955      0.016934      0.181983
7.90369      8.71156      4.06455        -0.004396      0.000838     -0.135929
1.44203      7.46584     10.10405        -0.042992     -0.047262      0.056539
4.30486      2.48557      6.08057         0.043726      0.071658      0.119628
7.18517      2.48902      2.03227         0.003266      0.002526      0.137138
1.44203      2.49022     10.10405        -0.042992      0.047262      0.056539
7.18517      7.46705      2.03227         0.003266     -0.002526      0.137138
4.30486      7.47049      6.08057         0.043726     -0.071658      0.119628
2.89333      7.43124      8.14947        -0.032805      0.041071     -0.091437
5.74814      2.48902      4.06455        -0.004587      0.006512     -0.123708
2.89333      2.52482      8.14947        -0.032805     -0.041071     -0.091437
5.74814      7.46705      4.06455        -0.004587     -0.006512     -0.123708
0.72519      8.70605      8.09648         0.024008     -0.013929      0.035059
3.59259      3.73352      4.06455         0.002941      0.006871     -0.124085
0.71182      3.73867      8.09357        -0.022904      0.013007      0.042379
3.59259      8.71156      4.06455        -0.004380      0.004573     -0.128205
0.71182      6.21739      8.09357        -0.022904     -0.013007      0.042379
3.59259      1.24451      4.06455        -0.004380     -0.004573     -0.128205
0.72519      1.25001      8.09648         0.024008      0.013929      0.035059
3.59259      6.22254      4.06455         0.002941     -0.006871     -0.124085
7.18445      7.46675      8.09581        -0.015471      0.012132      0.006074
1.43703      2.48902      4.06455        -0.000514     -0.001567     -0.124236
7.18445      2.48931      8.09581        -0.015471     -0.012132      0.006074
1.43703      7.46705      4.06455        -0.000514      0.001567     -0.124236
-0.00059      7.46718      6.08216         0.005652      0.011768     -0.024795
2.87407      2.48902      2.03227         0.001364     -0.002227      0.137374
5.75002      2.48295     10.10023        -0.005361     -0.000570      0.071429
-0.00059      2.48888      6.08216         0.005652     -0.011768     -0.024795
5.75002      7.47311     10.10023        -0.005361      0.000570      0.071429
2.87407      7.46705      2.03227         0.001364      0.002227      0.137374
6.46745      8.71139      6.08070        -0.012662     -0.009874     -0.003046
0.71852      3.73352      2.03227        -0.000953     -0.002536      0.139239
3.59419      3.74007     10.34117        -0.166026     -0.281762     -0.768319
6.47287      3.73710      6.08083        -0.086426      0.000563      0.113655
3.59021      8.70437     10.10357         0.036084      0.032653      0.061611
0.71852      8.71156      2.03227         0.002710     -0.002678      0.149232
6.47287      6.21896      6.08083        -0.086426     -0.000563      0.113655
0.71852      1.24451      2.03227         0.002710      0.002678      0.149232
3.59021      1.25169     10.10357         0.036084     -0.032653      0.061611
6.46745      1.24468      6.08070        -0.012662      0.009874     -0.003046
3.59419      6.21600     10.34117        -0.166026      0.281762     -0.768319
0.71852      6.22254      2.03227        -0.000953      0.002536      0.139239
4.30955      4.97803     11.19169        -0.003401     -0.000000      0.310905
