Ni  H                                   
   1.00000000000000     
     8.6222037999999994    0.0000000000000000    0.0000000000000000
     0.0000000000000000    9.9560633000000003    0.0000000000000000
     0.0000000000000000    0.0000000000000000   24.1936378000000012
   Ni   H 
    80     1
Cartesian
2.87012      4.97803      8.14793         0.010624      0.000000     -0.068839
5.74814      4.97803      4.06455        -0.036473      0.000000     -0.032504
5.74814      0.00000      4.06455         0.001829      0.000000     -0.141055
2.88120      0.00000      8.10369        -0.012992      0.000000     -0.009512
1.43779      0.00000     10.10627        -0.001346      0.000000      0.007208
4.30915      4.97803      6.11673        -0.006165      0.000000     -0.083860
7.18517      4.97803      2.03227         0.004926      0.000000      0.135537
1.41115      4.97803     10.12393         0.014862      0.000000     -0.009006
7.18517      0.00000      2.03227         0.001154      0.000000      0.140306
4.31211      0.00000      6.08204         0.012210      0.000000      0.006377
7.90450      1.24101     10.10285         0.014544     -0.005707      0.015696
2.15674      6.21756      6.09915        -0.011566      0.032880     -0.037728
5.02962      6.22254      2.03227         0.003113      0.000256      0.140267
7.89881      6.22768     10.11443        -0.029009     -0.000233      0.000684
5.02962      1.24451      2.03227         0.000618     -0.000706      0.139706
2.16156      1.24717      6.08647        -0.009668     -0.006075     -0.014641
7.90450      8.71506     10.10285         0.014544      0.005707      0.015696
2.15674      3.73850      6.09915        -0.011566     -0.032880     -0.037728
5.02962      3.73352      2.03227         0.003113     -0.000256      0.140267
7.89881      3.72839     10.11443        -0.029009      0.000233      0.000684
5.02962      8.71156      2.03227         0.000618      0.000706      0.139706
2.16156      8.70889      6.08647        -0.009668      0.006075     -0.014641
5.74779      0.00000     10.10109        -0.001730      0.000000      0.021267
-0.00686      4.97803      6.08417         0.010737      0.000000      0.006850
2.87407      4.97803      2.03227         0.001154      0.000000      0.153748
5.74677      4.97803     10.19337         0.070486      0.000000     -0.055134
2.87407      0.00000      2.03227        -0.001402      0.000000      0.140179
0.00605      0.00000      6.08417        -0.002685      0.000000     -0.016925
7.19044      0.00000      8.09524        -0.008374      0.000000     -0.005422
1.43703      4.97803      4.06455         0.006356      0.000000     -0.085682
7.16812      4.97803      8.12919        -0.006629      0.000000     -0.013897
1.43703      0.00000      4.06455         0.013513      0.000000     -0.134907
5.03110      1.24735      8.10136        -0.002520     -0.015959      0.007270
7.90369      6.22254      4.06455        -0.025604     -0.001416     -0.092524
5.02636      6.22096      8.14720        -0.003799     -0.007695     -0.070619
7.90369      1.24451      4.06455        -0.000927     -0.002380     -0.125954
5.03110      8.70871      8.10136        -0.002520      0.015959      0.007270
7.90369      3.73352      4.06455        -0.025604      0.001416     -0.092524
5.02636      3.73510      8.14720        -0.003799      0.007695     -0.070619
7.90369      8.71156      4.06455        -0.000927      0.002380     -0.125954
1.43281      7.46559     10.11439         0.014672      0.000407     -0.004600
4.31163      2.49734      6.09711        -0.020888     -0.030893     -0.035155
7.18517      2.48902      2.03227         0.004307      0.001990      0.138000
1.43281      2.49048     10.11439         0.014672     -0.000407     -0.004600
7.18517      7.46705      2.03227         0.004307     -0.001990      0.138000
4.31163      7.45872      6.09711        -0.020888      0.030893     -0.035155
2.87860      7.45362      8.12939         0.007157     -0.002579     -0.018916
5.74814      2.48902      4.06455        -0.012187      0.018103     -0.090152
2.87860      2.50244      8.12939         0.007157      0.002579     -0.018916
5.74814      7.46705      4.06455        -0.012187     -0.018103     -0.090152
0.72684      8.70648      8.10066        -0.012189      0.008197     -0.002953
3.59259      3.73352      4.06455         0.010622      0.027086     -0.028819
0.70876      3.73796      8.10528         0.005611     -0.011846      0.007122
3.59259      8.71156      4.06455         0.011009     -0.022524     -0.090611
0.70876      6.21810      8.10528         0.005611      0.011846      0.007122
3.59259      1.24451      4.06455         0.011009      0.022524     -0.090611
0.72684      1.24958      8.10066        -0.012189     -0.008197     -0.002953
3.59259      6.22254      4.06455         0.010622     -0.027086     -0.028819
7.18178      7.46844      8.10157         0.016371      0.001558      0.009735
1.43703      2.48902      4.06455         0.015767      0.022086     -0.080604
7.18178      2.48762      8.10157         0.016371     -0.001558      0.009735
1.43703      7.46705      4.06455         0.015767     -0.022086     -0.080604
0.00030      7.46523      6.08245        -0.004285      0.003942      0.006120
2.87407      2.48902      2.03227         0.000108     -0.004272      0.140509
5.75672      2.47046     10.12188        -0.006568      0.012916     -0.014030
0.00030      2.49083      6.08245        -0.004285     -0.003942      0.006120
5.75672      7.48561     10.12188        -0.006568     -0.012916     -0.014030
2.87407      7.46705      2.03227         0.000108      0.004272      0.140509
6.46621      8.71137      6.07990         0.007757     -0.002077      0.008376
0.71852      3.73352      2.03227         0.001616     -0.002678      0.139964
3.58871      3.73249     10.19399        -0.041101     -0.068249     -0.054713
6.45919      3.73575      6.09731         0.026907      0.002740     -0.035486
3.59231      8.71219     10.11375         0.003800     -0.013103     -0.007103
0.71852      8.71156      2.03227         0.001017     -0.000140      0.146188
6.45919      6.22031      6.09731         0.026907     -0.002740     -0.035486
0.71852      1.24451      2.03227         0.001017      0.000140      0.146188
3.59231      1.24387     10.11375         0.003800      0.013103     -0.007103
6.46621      1.24469      6.07990         0.007757      0.002077      0.008376
3.58871      6.22358     10.19399        -0.041101      0.068249     -0.054713
0.71852      6.22254      2.03227         0.001616      0.002678      0.139964
4.30983      4.97803     11.12636         0.000576      0.000000     -0.144786
