Ni  H                                   
   1.00000000000000     
     8.6222037999999994    0.0000000000000000    0.0000000000000000
     0.0000000000000000    9.9560633000000003    0.0000000000000000
     0.0000000000000000    0.0000000000000000   24.1936378000000012
   Ni   H 
    80     1
Cartesian
2.87325      4.97803      8.10466        -0.005008     -0.000000      0.000888
5.74814      4.97803      4.06455        -0.013543     -0.000000     -0.124220
5.74814      0.00000      4.06455         0.002113     -0.000000     -0.143763
2.87391      0.00000      8.09617         0.001928     -0.000000     -0.002026
1.43579      0.00000     10.10471        -0.000758     -0.000000     -0.004110
4.31062      4.97803      6.08526         0.001611     -0.000000      0.001254
7.18517      4.97803      2.03227         0.002211     -0.000000      0.134082
1.41711      4.97803     10.10059        -0.000153     -0.000000      0.000302
7.18517      0.00000      2.03227         0.000430     -0.000000      0.139189
4.31097      0.00000      6.08015         0.000698     -0.000000     -0.002448
7.90427      1.24081     10.10463         0.001165      0.004174     -0.004606
2.15571      6.22400      6.08214        -0.002310     -0.001506     -0.000470
5.02962      6.22254      2.03227         0.002675      0.000498      0.136221
7.89911      6.22669     10.10176        -0.000488      0.001305      0.000762
5.02962      1.24451      2.03227         0.001903     -0.000711      0.137686
2.15520      1.24269      6.07902        -0.000892      0.000126     -0.001445
7.90427      8.71525     10.10463         0.001165     -0.004174     -0.004606
2.15571      3.73206      6.08214        -0.002310      0.001506     -0.000470
5.02962      3.73352      2.03227         0.002675     -0.000498      0.136221
7.89911      3.72937     10.10176        -0.000488     -0.001305      0.000762
5.02962      8.71156      2.03227         0.001903      0.000711      0.137686
2.15520      8.71337      6.07902        -0.000892     -0.000126     -0.001445
5.74554      0.00000     10.10299        -0.001992     -0.000000     -0.001921
0.00151      4.97803      6.07888         0.000255     -0.000000     -0.002619
2.87407      4.97803      2.03227         0.000434     -0.000000      0.148156
5.75573      4.97803     10.13928        -0.000499     -0.000000     -0.000191
2.87407      0.00000      2.03227         0.001784     -0.000000      0.138776
-0.00017      0.00000      6.08110         0.003092     -0.000000     -0.001868
7.18549      0.00000      8.09745        -0.000728     -0.000000     -0.002346
1.43703      4.97803      4.06455         0.007058     -0.000000     -0.148729
7.17727      4.97803      8.10657        -0.001301     -0.000000     -0.000265
1.43703      0.00000      4.06455        -0.005812     -0.000000     -0.173480
5.02833      1.24459      8.09589         0.000125      0.000236      0.000825
7.90369      6.22254      4.06455        -0.002567      0.000059     -0.132265
5.02866      6.22237      8.10505        -0.000359      0.001545     -0.001626
7.90369      1.24451      4.06455        -0.007016     -0.001641     -0.140820
5.02833      8.71148      8.09589         0.000125     -0.000236      0.000825
7.90369      3.73352      4.06455        -0.002567     -0.000059     -0.132265
5.02866      3.73369      8.10505        -0.000359     -0.001545     -0.001626
7.90369      8.71156      4.06455        -0.007016      0.001641     -0.140820
1.43429      7.46778     10.10207        -0.002337      0.000899     -0.001032
4.30935      2.48937      6.08187         0.001094      0.000911      0.001139
7.18517      2.48902      2.03227         0.003317      0.000311      0.136768
1.43429      2.48828     10.10207        -0.002337     -0.000899     -0.001032
7.18517      7.46705      2.03227         0.003317     -0.000311      0.136768
4.30935      7.46669      6.08187         0.001094     -0.000911      0.001139
2.87623      7.46046      8.10554         0.001567      0.000931      0.000578
5.74814      2.48902      4.06455        -0.003944      0.004472     -0.133558
2.87623      2.49560      8.10554         0.001567     -0.000931      0.000578
5.74814      7.46705      4.06455        -0.003944     -0.004472     -0.133558
0.72091      8.70990      8.09698         0.000182      0.000052     -0.001406
3.59259      3.73352      4.06455         0.006334      0.008150     -0.125386
0.71462      3.73454      8.09569        -0.000884     -0.000714     -0.001091
3.59259      8.71156      4.06455        -0.000547     -0.002472     -0.133314
0.71462      6.22152      8.09569        -0.000884      0.000714     -0.001091
3.59259      1.24451      4.06455        -0.000547      0.002472     -0.133314
0.72091      1.24617      8.09698         0.000182     -0.000052     -0.001406
3.59259      6.22254      4.06455         0.006334     -0.008150     -0.125386
7.18461      7.46857      8.09635         0.000652      0.000046     -0.000732
1.43703      2.48902      4.06455         0.001250      0.006898     -0.130440
7.18461      2.48750      8.09635         0.000652     -0.000046     -0.000732
1.43703      7.46705      4.06455         0.001250     -0.006898     -0.130440
-0.00030      7.46716      6.07997         0.000183     -0.000268     -0.000200
2.87407      2.48902      2.03227         0.002357     -0.001512      0.136761
5.75408      2.47418     10.10122        -0.000945     -0.000494     -0.000563
-0.00030      2.48890      6.07997         0.000183      0.000268     -0.000200
5.75408      7.48188     10.10122        -0.000945      0.000494     -0.000563
2.87407      7.46705      2.03227         0.002357      0.001512      0.136761
6.46602      8.71177      6.08001        -0.000006     -0.002601     -0.001130
0.71852      3.73352      2.03227         0.000140     -0.002060      0.137491
3.58362      3.72364     10.13921        -0.000561      0.000793      0.001936
6.46708      3.73469      6.08225        -0.000988      0.000862     -0.000103
3.58999      8.71243     10.10173         0.001531     -0.000705     -0.001010
0.71852      8.71156      2.03227         0.002652     -0.000780      0.145142
6.46708      6.22138      6.08225        -0.000988     -0.000862     -0.000103
0.71852      1.24451      2.03227         0.002652      0.000780      0.145142
3.58999      1.24363     10.10173         0.001531      0.000705     -0.001010
6.46602      1.24430      6.08001        -0.000006      0.002601     -0.001130
3.58362      6.23243     10.13921        -0.000561     -0.000793      0.001936
0.71852      6.22254      2.03227         0.000140      0.002060      0.137491
4.30823      4.97803     11.03192         0.001612     -0.000000     -0.002890
