Ni  H                                   
   1.00000000000000     
     8.6222037999999994    0.0000000000000000    0.0000000000000000
     0.0000000000000000    9.9560633000000003    0.0000000000000000
     0.0000000000000000    0.0000000000000000   24.1936378000000012
   Ni   H 
    80     1
Cartesian
2.88738      4.97803      8.15636        -0.055918     -0.000000     -0.012784
5.74814      4.97803      4.06455        -0.020307     -0.000000     -0.076145
5.74814      0.00000      4.06455         0.002585     -0.000000     -0.142493
2.87595      0.00000      8.09959         0.030442     -0.000000      0.029300
1.43607      0.00000     10.10474         0.012850     -0.000000      0.002440
4.31026      4.97803      6.09601        -0.001301     -0.000000      0.117134
7.18517      4.97803      2.03227         0.004850     -0.000000      0.132057
1.42854      4.97803     10.10583        -0.090929     -0.000000      0.071724
7.18517      0.00000      2.03227        -0.000036     -0.000000      0.142698
4.31239      0.00000      6.07997        -0.006202     -0.000000      0.007337
7.90385      1.24151     10.10335         0.003145      0.011793     -0.009324
2.15744      6.22386      6.09197         0.003493     -0.034532      0.043273
5.02962      6.22254      2.03227         0.003233      0.000575      0.136445
7.89251      6.22542     10.10960         0.072006      0.030909      0.019846
5.02962      1.24451      2.03227         0.001227     -0.000164      0.137934
2.15863      1.24640      6.08773         0.017971      0.009531      0.003523
7.90385      8.71456     10.10335         0.003145     -0.011793     -0.009324
2.15744      3.73221      6.09197         0.003493      0.034532      0.043273
5.02962      3.73352      2.03227         0.003233     -0.000575      0.136445
7.89251      3.73065     10.10960         0.072006     -0.030909      0.019846
5.02962      8.71156      2.03227         0.001227      0.000164      0.137934
2.15863      8.70966      6.08773         0.017971     -0.009531      0.003523
5.74408      0.00000     10.10282         0.005035     -0.000000     -0.015585
-0.00334      4.97803      6.08710        -0.019986     -0.000000     -0.008380
2.87407      4.97803      2.03227         0.001540     -0.000000      0.150521
5.77129      4.97803     10.27215        -0.273893     -0.000000     -0.297536
2.87407      0.00000      2.03227        -0.000656     -0.000000      0.141244
0.00244      0.00000      6.08220         0.011271     -0.000000      0.011044
7.18682      0.00000      8.09681         0.013860     -0.000000     -0.003203
1.43703      4.97803      4.06455         0.003348     -0.000000     -0.094257
7.14668      4.97803      8.14466         0.097808     -0.000000     -0.094908
1.43703      0.00000      4.06455         0.013665     -0.000000     -0.135081
5.02818      1.24657      8.09635         0.013318      0.004542      0.018317
7.90369      6.22254      4.06455        -0.010516     -0.005754     -0.103616
5.02172      6.20930      8.15575         0.012469      0.036672     -0.013795
7.90369      1.24451      4.06455        -0.006359     -0.002017     -0.140246
5.02818      8.70949      8.09635         0.013318     -0.004542      0.018317
7.90369      3.73352      4.06455        -0.010516      0.005754     -0.103616
5.02172      3.74676      8.15575         0.012469     -0.036672     -0.013795
7.90369      8.71156      4.06455        -0.006359      0.002017     -0.140246
1.43999      7.46075     10.10950        -0.077055      0.031224      0.022705
4.30829      2.49175      6.09122         0.018373      0.032483      0.039223
7.18517      2.48902      2.03227         0.003695      0.002904      0.137420
1.43999      2.49532     10.10950        -0.077055     -0.031224      0.022705
7.18517      7.46705      2.03227         0.003695     -0.002904      0.137420
4.30829      7.46432      6.09122         0.018373     -0.032483      0.039223
2.89083      7.43380      8.14329        -0.054495      0.087879     -0.089051
5.74814      2.48902      4.06455        -0.010196      0.015331     -0.100867
2.89083      2.52227      8.14329        -0.054495     -0.087879     -0.089051
5.74814      7.46705      4.06455        -0.010196     -0.015331     -0.100867
0.72776      8.70466      8.09941        -0.000172     -0.001984      0.012034
3.59259      3.73352      4.06455         0.007967      0.014176     -0.072897
0.70936      3.73983      8.09663        -0.011030     -0.005135      0.038995
3.59259      8.71156      4.06455         0.001039     -0.013704     -0.104681
0.70936      6.21623      8.09663        -0.011030      0.005135      0.038995
3.59259      1.24451      4.06455         0.001039      0.013704     -0.104681
0.72776      1.25140      8.09941        -0.000172      0.001984      0.012034
3.59259      6.22254      4.06455         0.007967     -0.014176     -0.072897
7.18343      7.46779      8.09591        -0.008653      0.004194      0.020664
1.43703      2.48902      4.06455         0.012203      0.013133     -0.100881
7.18343      2.48827      8.09591        -0.008653     -0.004194      0.020664
1.43703      7.46705      4.06455         0.012203     -0.013133     -0.100881
-0.00009      7.46841      6.07990         0.003491     -0.014318      0.009218
2.87407      2.48902      2.03227         0.000765     -0.003790      0.139783
5.74871      2.48435     10.10664         0.039494     -0.070731      0.064054
-0.00009      2.48765      6.07990         0.003491      0.014318      0.009218
5.74871      7.47171     10.10664         0.039494      0.070731      0.064054
2.87407      7.46705      2.03227         0.000765      0.003790      0.139783
6.46642      8.71044      6.08030        -0.003745      0.004879     -0.003961
0.71852      3.73352      2.03227         0.000708     -0.002727      0.140287
3.57720      3.71104     10.27342         0.134719      0.241495     -0.299933
6.46552      3.73742      6.09102        -0.034209     -0.003635      0.040614
3.59359      8.70526     10.10948        -0.000439      0.080112      0.021361
0.71852      8.71156      2.03227         0.002409     -0.001038      0.147971
6.46552      6.21864      6.09102        -0.034209      0.003635      0.040614
0.71852      1.24451      2.03227         0.002409      0.001038      0.147971
3.59359      1.25081     10.10948        -0.000439     -0.080112      0.021361
6.46642      1.24562      6.08030        -0.003745     -0.004879     -0.003961
3.57720      6.24502     10.27342         0.134719     -0.241495     -0.299933
0.71852      6.22254      2.03227         0.000708      0.002727      0.140287
4.30927      4.97803     11.19541         0.002256     -0.000000     -0.233960
