Ni  H                                   
   1.00000000000000     
     8.6222037999999994    0.0000000000000000    0.0000000000000000
     0.0000000000000000    9.9560633000000003    0.0000000000000000
     0.0000000000000000    0.0000000000000000   24.1936378000000012
   Ni   H 
    80     1
Cartesian
2.87092      4.97803      8.10627         0.012410      0.000000     -0.003493
5.74814      4.97803      4.06455        -0.013570      0.000000     -0.119377
5.74814      0.00000      4.06455         0.004310      0.000000     -0.137043
2.87381      0.00000      8.09705         0.008081      0.000000      0.002313
1.43535      0.00000     10.10611         0.007715      0.000000     -0.000702
4.31068      4.97803      6.08618        -0.002423      0.000000      0.000364
7.18517      4.97803      2.03227         0.002132      0.000000      0.133921
1.41706      4.97803     10.10394        -0.001810      0.000000     -0.006186
7.18517      0.00000      2.03227         0.000326      0.000000      0.139788
4.31110      0.00000      6.08025         0.000297      0.000000      0.004046
7.90486      1.24233     10.10693        -0.003041     -0.009543     -0.005476
2.15501      6.22401      6.08271         0.004522     -0.000261      0.002711
5.02962      6.22254      2.03227         0.002774      0.000384      0.136198
7.89958      6.22672     10.10571        -0.002123     -0.002318     -0.009112
5.02962      1.24451      2.03227         0.001969     -0.000396      0.138314
2.15458      1.24274      6.07968         0.005115      0.001033     -0.001510
7.90486      8.71374     10.10693        -0.003041      0.009543     -0.005476
2.15501      3.73206      6.08271         0.004522      0.000261      0.002711
5.02962      3.73352      2.03227         0.002774     -0.000384      0.136198
7.89958      3.72934     10.10571        -0.002123      0.002318     -0.009112
5.02962      8.71156      2.03227         0.001969      0.000396      0.138314
2.15458      8.71333      6.07968         0.005115     -0.001033     -0.001510
5.74517      0.00000     10.10531         0.007231      0.000000     -0.003427
0.00141      4.97803      6.07957         0.000004      0.000000      0.003244
2.87407      4.97803      2.03227         0.000456      0.000000      0.148350
5.75512      4.97803     10.14026         0.004289      0.000000     -0.000678
2.87407      0.00000      2.03227         0.001605      0.000000      0.139362
0.00129      0.00000      6.08234        -0.013806      0.000000     -0.004359
7.18558      0.00000      8.09972         0.003099      0.000000     -0.005533
1.43703      4.97803      4.06455         0.006796      0.000000     -0.146192
7.17732      4.97803      8.10932        -0.002241      0.000000     -0.006021
1.43703      0.00000      4.06455        -0.005324      0.000000     -0.171256
5.02942      1.24431      8.09745        -0.006849      0.000523     -0.001246
7.90369      6.22254      4.06455        -0.002358     -0.000032     -0.129053
5.02800      6.22296      8.10581         0.000043     -0.005193     -0.000896
7.90369      1.24451      4.06455        -0.006793     -0.002409     -0.134012
5.02942      8.71176      8.09745        -0.006849     -0.000523     -0.001246
7.90369      3.73352      4.06455        -0.002358      0.000032     -0.129053
5.02800      3.73310      8.10581         0.000043      0.005193     -0.000896
7.90369      8.71156      4.06455        -0.006793      0.002409     -0.134012
1.43436      7.46832     10.10508         0.001414     -0.002119     -0.008161
4.30919      2.48894      6.08271        -0.000522      0.003783     -0.000323
7.18517      2.48902      2.03227         0.003242      0.000657      0.136631
1.43436      2.48774     10.10508         0.001414      0.002119     -0.008161
7.18517      7.46705      2.03227         0.003242     -0.000657      0.136631
4.30919      7.46712      6.08271        -0.000522     -0.003783     -0.000323
2.87633      7.46143      8.10729        -0.001281     -0.003592     -0.002299
5.74814      2.48902      4.06455        -0.004289      0.004975     -0.129068
2.87633      2.49463      8.10729        -0.001281      0.003592     -0.002299
5.74814      7.46705      4.06455        -0.004289     -0.004975     -0.129068
0.72087      8.71063      8.09901         0.001277     -0.009478     -0.005216
3.59259      3.73352      4.06455         0.006085      0.008305     -0.120085
0.71460      3.73438      8.09783        -0.001454     -0.001739      0.000040
3.59259      8.71156      4.06455        -0.001595     -0.003067     -0.130055
0.71460      6.22169      8.09783        -0.001454      0.001739      0.000040
3.59259      1.24451      4.06455        -0.001595      0.003067     -0.130055
0.72087      1.24544      8.09901         0.001277      0.009478     -0.005216
3.59259      6.22254      4.06455         0.006085     -0.008305     -0.120085
7.18529      7.46810      8.09840        -0.001076     -0.000640     -0.002543
1.43703      2.48902      4.06455         0.000824      0.006994     -0.127398
7.18529      2.48796      8.09840        -0.001076      0.000640     -0.002543
1.43703      7.46705      4.06455         0.000824     -0.006994     -0.127398
-0.00031      7.46692      6.08090         0.000796      0.002430      0.000572
2.87407      2.48902      2.03227         0.002294     -0.001309      0.137057
5.75467      2.47462     10.10279        -0.003628     -0.000808     -0.000898
-0.00031      2.48914      6.08090         0.000796     -0.002430      0.000572
5.75467      7.48144     10.10279        -0.003628      0.000808     -0.000898
2.87407      7.46705      2.03227         0.002294      0.001309      0.137057
6.46621      8.71084      6.08129         0.003001      0.009753     -0.005161
0.71852      3.73352      2.03227        -0.000088     -0.001923      0.137621
3.58351      3.72398     10.14062        -0.002787     -0.005975     -0.002453
6.46754      3.73463      6.08310        -0.005735      0.003974      0.001429
3.59116      8.71224     10.10387        -0.004508      0.001742     -0.005462
0.71852      8.71156      2.03227         0.002486     -0.001027      0.144995
6.46754      6.22144      6.08310        -0.005735     -0.003974      0.001429
0.71852      1.24451      2.03227         0.002486      0.001027      0.144995
3.59116      1.24382     10.10387        -0.004508     -0.001742     -0.005462
6.46621      1.24522      6.08129         0.003001     -0.009753     -0.005161
3.58351      6.23208     10.14062        -0.002787      0.005975     -0.002453
0.71852      6.22254      2.03227        -0.000088      0.001923      0.137621
4.30693      4.97803     11.03253         0.004990      0.000000      0.002601
