Ni  H                                   
   1.00000000000000     
     8.6222037999999994    0.0000000000000000    0.0000000000000000
     0.0000000000000000    9.9560633000000003    0.0000000000000000
     0.0000000000000000    0.0000000000000000   24.1936378000000012
   Ni   H 
    80     1
Cartesian
2.86349      4.97803      8.13744         0.075372      0.000000     -0.003257
5.74814      4.97803      4.06455        -0.036981      0.000000     -0.040223
5.74814      0.00000      4.06455         0.001385      0.000000     -0.139174
2.88120      0.00000      8.10246        -0.015193      0.000000      0.002275
1.43697      0.00000     10.10773         0.008846      0.000000     -0.003916
4.30861      4.97803      6.11520        -0.004877      0.000000     -0.099583
7.18517      4.97803      2.03227         0.004498      0.000000      0.135285
1.40814      4.97803     10.12773         0.039474      0.000000     -0.040514
7.18517      0.00000      2.03227         0.000984      0.000000      0.140183
4.31276      0.00000      6.08332         0.012283      0.000000     -0.002833
7.90443      1.23867     10.10383         0.025579      0.018224      0.013811
2.15482      6.21830      6.09710         0.002100      0.040022     -0.032715
5.02962      6.22254      2.03227         0.003153      0.000077      0.140035
7.89643      6.22595     10.11411        -0.010864      0.023695      0.009702
5.02962      1.24451      2.03227         0.000447     -0.000775      0.139717
2.16163      1.24626      6.08443        -0.013546      0.001266     -0.002372
7.90443      8.71739     10.10383         0.025579     -0.018224      0.013811
2.15482      3.73777      6.09710         0.002100     -0.040022     -0.032715
5.02962      3.73352      2.03227         0.003153     -0.000077      0.140035
7.89643      3.73012     10.11411        -0.010864     -0.023695      0.009702
5.02962      8.71156      2.03227         0.000447      0.000775      0.139717
2.16163      8.70980      6.08443        -0.013546     -0.001266     -0.002372
5.75053      0.00000     10.10194        -0.029376      0.000000      0.024147
-0.00686      4.97803      6.08224         0.013903      0.000000      0.029687
2.87407      4.97803      2.03227         0.001234      0.000000      0.153279
5.74515      4.97803     10.18649         0.097285      0.000000     -0.087820
2.87407      0.00000      2.03227        -0.000669      0.000000      0.140019
0.00719      0.00000      6.08477        -0.014480      0.000000     -0.033283
7.19107      0.00000      8.09468        -0.017358      0.000000     -0.003250
1.43703      4.97803      4.06455         0.006801      0.000000     -0.095993
7.17203      4.97803      8.12947        -0.033619      0.000000     -0.045628
1.43703      0.00000      4.06455         0.010076      0.000000     -0.143486
5.03167      1.24708      8.10303        -0.007395     -0.023164     -0.001582
7.90369      6.22254      4.06455        -0.023227      0.001045     -0.098404
5.02892      6.22617      8.13682        -0.032254     -0.058982     -0.007715
7.90369      1.24451      4.06455         0.000877     -0.001715     -0.121279
5.03167      8.70898      8.10303        -0.007395      0.023164     -0.001582
7.90369      3.73352      4.06455        -0.023227     -0.001045     -0.098404
5.02892      3.72989      8.13682        -0.032254      0.058982     -0.007715
7.90369      8.71156      4.06455         0.000877      0.001715     -0.121279
1.43575      7.46726     10.11397        -0.019373     -0.011895      0.002728
4.31132      2.49637      6.09454        -0.028215     -0.033985     -0.021750
7.18517      2.48902      2.03227         0.004323      0.001504      0.138074
1.43575      2.48881     10.11397        -0.019373      0.011895      0.002728
7.18517      7.46705      2.03227         0.004323     -0.001504      0.138074
4.31132      7.45969      6.09454        -0.028215      0.033985     -0.021750
2.87639      7.45781      8.13025         0.023578     -0.030321     -0.058625
5.74814      2.48902      4.06455        -0.010827      0.014979     -0.096749
2.87639      2.49825      8.13025         0.023578      0.030321     -0.058625
5.74814      7.46705      4.06455        -0.010827     -0.014979     -0.096749
0.72555      8.70825      8.09962        -0.006086     -0.006429      0.008245
3.59259      3.73352      4.06455         0.009078      0.026968     -0.036805
0.71008      3.73695      8.10667        -0.007139     -0.010650      0.005385
3.59259      8.71156      4.06455         0.012136     -0.018062     -0.095887
0.71008      6.21912      8.10667        -0.007139      0.010650      0.005385
3.59259      1.24451      4.06455         0.012136      0.018062     -0.095887
0.72555      1.24782      8.09962        -0.006086      0.006429      0.008245
3.59259      6.22254      4.06455         0.009078     -0.026968     -0.036805
7.18167      7.46816      8.10340         0.027186      0.006552      0.000943
1.43703      2.48902      4.06455         0.011723      0.019747     -0.084643
7.18167      2.48790      8.10340         0.027186     -0.006552      0.000943
1.43703      7.46705      4.06455         0.011723     -0.019747     -0.084643
0.00012      7.46411      6.08392        -0.004826      0.016852     -0.003967
2.87407      2.48902      2.03227         0.000409     -0.003663      0.139747
5.75874      2.46733     10.12414        -0.024666      0.041159     -0.033164
0.00012      2.49195      6.08392        -0.004826     -0.016852     -0.003967
5.75874      7.48873     10.12414        -0.024666     -0.041159     -0.033164
2.87407      7.46705      2.03227         0.000409      0.003663      0.139747
6.46665      8.71175      6.08013         0.007605     -0.006214      0.010817
0.71852      3.73352      2.03227         0.001184     -0.002820      0.139625
3.58904      3.73331     10.18687        -0.053282     -0.087675     -0.084052
6.46014      3.73486      6.09492         0.028175      0.013136     -0.025138
3.59060      8.70916     10.11296         0.024349      0.023155      0.002264
0.71852      8.71156      2.03227         0.000927     -0.000807      0.146126
6.46014      6.22120      6.09492         0.028175     -0.013136     -0.025138
0.71852      1.24451      2.03227         0.000927      0.000807      0.146126
3.59060      1.24691     10.11296         0.024349     -0.023155      0.002264
6.46665      1.24431      6.08013         0.007605      0.006214      0.010817
3.58904      6.22276     10.18687        -0.053282      0.087675     -0.084052
0.71852      6.22254      2.03227         0.001184      0.002820      0.139625
4.31009      4.97803     11.10523        -0.001849      0.000000     -0.070661
