Ni  H                                   
   1.00000000000000     
     8.6222037999999994    0.0000000000000000    0.0000000000000000
     0.0000000000000000    9.9560633000000003    0.0000000000000000
     0.0000000000000000    0.0000000000000000   24.1936378000000012
   Ni   H 
    80     1
Cartesian
2.87394      4.97803      8.09721         0.029351     -0.000000      0.064129
5.74814      4.97803      4.06455        -0.015573     -0.000000     -0.133415
5.74814      0.00000      4.06455         0.003177     -0.000000     -0.132207
2.87414      0.00000      8.09998        -0.000312     -0.000000     -0.008944
1.43446      0.00000     10.10644        -0.002843     -0.000000      0.003905
4.31150      4.97803      6.08239        -0.000483     -0.000000      0.004738
7.18517      4.97803      2.03227         0.002727     -0.000000      0.132459
1.43119      4.97803     10.10517        -0.028776     -0.000000     -0.017751
7.18517      0.00000      2.03227         0.002217     -0.000000      0.142169
4.31169      0.00000      6.08191         0.004120     -0.000000      0.003151
7.90140      1.24420     10.10594         0.003928     -0.011246     -0.002002
2.15516      6.22302      6.08132        -0.007597      0.014626     -0.000766
5.02962      6.22254      2.03227         0.001997      0.001130      0.132993
7.90286      6.22354     10.10481        -0.002405      0.007862     -0.013224
5.02962      1.24451      2.03227         0.001946      0.001916      0.139006
2.15599      1.24381      6.08139         0.003698     -0.003933      0.003316
7.90140      8.71186     10.10594         0.003928      0.011246     -0.002002
2.15516      3.73304      6.08132        -0.007597     -0.014626     -0.000766
5.02962      3.73352      2.03227         0.001997     -0.001130      0.132993
7.90286      3.73253     10.10481        -0.002405     -0.007862     -0.013224
5.02962      8.71156      2.03227         0.001946     -0.001916      0.139006
2.15599      8.71225      6.08139         0.003698      0.003933      0.003316
5.74590      0.00000     10.10594         0.004114     -0.000000     -0.002770
0.00050      4.97803      6.08117        -0.002114     -0.000000      0.001347
2.87407      4.97803      2.03227         0.006186     -0.000000      0.145204
5.73729      4.97803     10.14077        -0.146468     -0.000000      0.582169
2.87407      0.00000      2.03227         0.006840     -0.000000      0.144844
0.00069      0.00000      6.08207         0.004653     -0.000000      0.005794
7.18486      0.00000      8.10005        -0.002992     -0.000000     -0.005371
1.43703      4.97803      4.06455         0.007500     -0.000000     -0.157469
7.18107      4.97803      8.10502        -0.099292     -0.000000      0.116889
1.43703      0.00000      4.06455        -0.008015     -0.000000     -0.170006
5.03000      1.24496      8.10017        -0.000737      0.003071     -0.006471
7.90369      6.22254      4.06455         0.004085     -0.003487     -0.125929
5.02994      6.22311      8.09720        -0.014166     -0.023036      0.063305
7.90369      1.24451      4.06455        -0.007493     -0.003536     -0.132140
5.03000      8.71110      8.10017        -0.000737     -0.003071     -0.006471
7.90369      3.73352      4.06455         0.004085      0.003487     -0.125929
5.02994      3.73295      8.09720        -0.014166      0.023036      0.063305
7.90369      8.71156      4.06455        -0.007493      0.003536     -0.132140
1.43312      7.46825     10.10506         0.000585      0.004988     -0.011912
4.31107      2.48869      6.08130        -0.012253     -0.007535     -0.003106
7.18517      2.48902      2.03227         0.002769      0.000870      0.133630
1.43312      2.48782     10.10506         0.000585     -0.004988     -0.011912
7.18517      7.46705      2.03227         0.002769     -0.000870      0.133630
4.31107      7.46737      6.08130        -0.012253      0.007535     -0.003106
2.87644      7.46335      8.10474         0.048900     -0.086367      0.115278
5.74814      2.48902      4.06455        -0.001538     -0.001814     -0.139210
2.87644      2.49271      8.10474         0.048900      0.086367      0.115278
5.74814      7.46705      4.06455        -0.001538      0.001814     -0.139210
0.71895      8.71100      8.09994         0.011748     -0.012226     -0.006950
3.59259      3.73352      4.06455         0.006823      0.006360     -0.128104
0.71831      3.73426      8.10028        -0.013899      0.012596     -0.009352
3.59259      8.71156      4.06455        -0.007114     -0.003352     -0.129138
0.71831      6.22180      8.10028        -0.013899     -0.012596     -0.009352
3.59259      1.24451      4.06455        -0.007114      0.003352     -0.129138
0.71895      1.24507      8.09994         0.011748      0.012226     -0.006950
3.59259      6.22254      4.06455         0.006823     -0.006360     -0.128104
7.18469      7.46704      8.10026        -0.005276     -0.000246     -0.006996
1.43703      2.48902      4.06455         0.007152     -0.000540     -0.123800
7.18469      2.48903      8.10026        -0.005276      0.000246     -0.006996
1.43703      7.46705      4.06455         0.007152      0.000540     -0.123800
0.00017      7.46678      6.08186        -0.001953     -0.001944      0.002258
2.87407      2.48902      2.03227        -0.000573     -0.000097      0.138416
5.74755      2.48601     10.10502         0.017332     -0.028602     -0.020058
0.00017      2.48929      6.08186        -0.001953      0.001944      0.002258
5.74755      7.47005     10.10502         0.017332      0.028602     -0.020058
2.87407      7.46705      2.03227        -0.000573      0.000097      0.138416
6.46691      8.71164      6.08171         0.000433      0.000086     -0.001165
0.71852      3.73352      2.03227        -0.002231     -0.004909      0.137517
3.59423      3.74070     10.14077         0.071926      0.124614      0.583087
6.46745      3.73365      6.08124         0.011739      0.005869     -0.002986
3.58983      8.71341     10.10498        -0.001838      0.000460     -0.013103
0.71852      8.71156      2.03227         0.000802     -0.010782      0.145753
6.46745      6.22241      6.08124         0.011739     -0.005869     -0.002986
0.71852      1.24451      2.03227         0.000802      0.010782      0.145753
3.58983      1.24265     10.10498        -0.001838     -0.000460     -0.013103
6.46691      1.24442      6.08171         0.000433     -0.000086     -0.001165
3.59423      6.21536     10.14077         0.071926     -0.124614      0.583087
0.71852      6.22254      2.03227        -0.002231      0.004909      0.137517
4.30874      4.97803     12.00675         0.002408     -0.000000     -2.155161
