Ni  H                                   
   1.00000000000000     
     8.6222037999999994    0.0000000000000000    0.0000000000000000
     0.0000000000000000    9.9560633000000003    0.0000000000000000
     0.0000000000000000    0.0000000000000000   24.1936378000000012
   Ni   H 
    80     1
Cartesian
2.87422      4.97803      8.10027        -0.005741      0.000000     -0.063504
5.74814      4.97803      4.06455        -0.014437      0.000000     -0.133570
5.74814      0.00000      4.06455         0.003274      0.000000     -0.132038
2.87422      0.00000      8.10027        -0.001552      0.000000     -0.006082
1.43457      0.00000     10.10606        -0.002369      0.000000      0.007859
4.31141      4.97803      6.08165         0.001900      0.000000      0.015344
7.18517      4.97803      2.03227         0.002476      0.000000      0.133549
1.43457      4.97803     10.10606        -0.070043      0.000000     -0.018474
7.18517      0.00000      2.03227         0.002763      0.000000      0.141330
4.31141      0.00000      6.08165         0.005921      0.000000      0.005308
7.90123      1.24451     10.10606         0.003714     -0.006282     -0.002567
2.15585      6.22254      6.08165        -0.014296      0.010007     -0.006978
5.02962      6.22254      2.03227         0.001438      0.001530      0.133639
7.90123      6.22254     10.10606         0.033952      0.020703     -0.025988
5.02962      1.24451      2.03227         0.002154      0.001869      0.138916
2.15585      1.24451      6.08165         0.002732     -0.014413     -0.005486
7.90123      8.71156     10.10606         0.003714      0.006282     -0.002567
2.15585      3.73352      6.08165        -0.014296     -0.010007     -0.006978
5.02962      3.73352      2.03227         0.001438     -0.001530      0.133639
7.90123      3.73352     10.10606         0.033952     -0.020703     -0.025988
5.02962      8.71156      2.03227         0.002154     -0.001869      0.138916
2.15585      8.71156      6.08165         0.002732      0.014413     -0.005486
5.74567      0.00000     10.10606         0.004767      0.000000     -0.002488
0.00030      4.97803      6.08165         0.004125      0.000000     -0.010051
2.87407      4.97803      2.03227         0.006692      0.000000      0.144340
5.74567      4.97803     10.10606        -0.173707      0.000000      0.719456
2.87407      0.00000      2.03227         0.006251      0.000000      0.145266
0.00030      0.00000      6.08165         0.008013      0.000000      0.008744
7.18532      0.00000      8.10027        -0.009410      0.000000     -0.004583
1.43703      4.97803      4.06455         0.007275      0.000000     -0.155921
7.18532      4.97803      8.10027        -0.088125      0.000000      0.098342
1.43703      0.00000      4.06455        -0.007713      0.000000     -0.167526
5.02977      1.24451      8.10027         0.004763      0.009451     -0.002155
7.90369      6.22254      4.06455         0.004468     -0.003366     -0.125556
5.02977      6.22254      8.10027         0.003494      0.011829     -0.063649
7.90369      1.24451      4.06455        -0.007283     -0.003934     -0.133238
5.02977      8.71156      8.10027         0.004763     -0.009451     -0.002155
7.90369      3.73352      4.06455         0.004468      0.003366     -0.125556
5.02977      3.73352      8.10027         0.003494     -0.011829     -0.063649
7.90369      8.71156      4.06455        -0.007283      0.003934     -0.133238
1.43457      7.46705     10.10606        -0.030018      0.024862     -0.020724
4.31141      2.48902      6.08165        -0.006991     -0.006712     -0.007254
7.18517      2.48902      2.03227         0.002831      0.000459      0.132945
1.43457      2.48902     10.10606        -0.030018     -0.024862     -0.020724
7.18517      7.46705      2.03227         0.002831     -0.000459      0.132945
4.31141      7.46705      6.08165        -0.006991      0.006712     -0.007254
2.87422      7.46705      8.10027         0.046133     -0.076574      0.092600
5.74814      2.48902      4.06455        -0.001680     -0.001980     -0.139098
2.87422      2.48902      8.10027         0.046133      0.076574      0.092600
5.74814      7.46705      4.06455        -0.001680      0.001980     -0.139098
0.71867      8.71156      8.10027         0.005859     -0.011557     -0.006839
3.59259      3.73352      4.06455         0.005734      0.004423     -0.129099
0.71867      3.73352      8.10027        -0.007331      0.015236      0.000084
3.59259      8.71156      4.06455        -0.007971     -0.004136     -0.129812
0.71867      6.22254      8.10027        -0.007331     -0.015236      0.000084
3.59259      1.24451      4.06455        -0.007971      0.004136     -0.129812
0.71867      1.24451      8.10027         0.005859      0.011557     -0.006839
3.59259      6.22254      4.06455         0.005734     -0.004423     -0.129099
7.18532      7.46705      8.10027        -0.013038     -0.000194     -0.000327
1.43703      2.48902      4.06455         0.007864     -0.001084     -0.124813
7.18532      2.48902      8.10027        -0.013038      0.000194     -0.000327
1.43703      7.46705      4.06455         0.007864      0.001084     -0.124813
0.00030      7.46705      6.08165        -0.002704     -0.005604      0.004204
2.87407      2.48902      2.03227        -0.000831      0.000471      0.138278
5.74567      2.48902     10.10606         0.038940     -0.062336     -0.021501
0.00030      2.48902      6.08165        -0.002704      0.005604      0.004204
5.74567      7.46705     10.10606         0.038940      0.062336     -0.021501
2.87407      7.46705      2.03227        -0.000831     -0.000471      0.138278
6.46696      8.71156      6.08165        -0.001007      0.001738      0.001250
0.71852      3.73352      2.03227        -0.001739     -0.005305      0.137047
3.59012      3.73352     10.10606         0.085117      0.148830      0.719496
6.46696      3.73352      6.08165         0.010134      0.002716     -0.008546
3.59012      8.71156     10.10606        -0.006000      0.038482     -0.022502
0.71852      8.71156      2.03227         0.000307     -0.011303      0.144352
6.46696      6.22254      6.08165         0.010134     -0.002716     -0.008546
0.71852      1.24451      2.03227         0.000307      0.011303      0.144352
3.59012      1.24451     10.10606        -0.006000     -0.038482     -0.022502
6.46696      1.24451      6.08165        -0.001007     -0.001738      0.001250
3.59012      6.22254     10.10606         0.085117     -0.148830      0.719496
0.71852      6.22254      2.03227        -0.001739      0.005305      0.137047
4.30864      4.97803     12.10606         0.002152      0.000000     -2.058656
