Ni  H                                   
   1.00000000000000     
     8.6222037999999994    0.0000000000000000    0.0000000000000000
     0.0000000000000000    9.9560633000000003    0.0000000000000000
     0.0000000000000000    0.0000000000000000   24.1936378000000012
   Ni   H 
    80     1
Cartesian
2.87251      4.97803      8.10464         0.000954     -0.000000      0.004819
5.74814      4.97803      4.06455        -0.013078     -0.000000     -0.123116
5.74814      0.00000      4.06455         0.001954     -0.000000     -0.142922
2.87389      0.00000      8.09688        -0.000140     -0.000000     -0.004773
1.43562      0.00000     10.10557         0.000459     -0.000000     -0.004833
4.31084      4.97803      6.08552        -0.002083     -0.000000     -0.000067
7.18517      4.97803      2.03227         0.002285     -0.000000      0.133954
1.41674      4.97803     10.10171         0.003679     -0.000000     -0.001876
7.18517      0.00000      2.03227         0.000559     -0.000000      0.139050
4.31074      0.00000      6.07999         0.002736     -0.000000      0.001918
7.90427      1.24114     10.10578         0.001681      0.000989     -0.005198
2.15548      6.22367      6.08216         0.000340      0.003434      0.001465
5.02962      6.22254      2.03227         0.002750      0.000539      0.136157
7.89953      6.22667     10.10315        -0.002914      0.000354     -0.002910
5.02962      1.24451      2.03227         0.002029     -0.000647      0.137935
2.15482      1.24262      6.07920         0.002072      0.000834      0.000036
7.90427      8.71492     10.10578         0.001681     -0.000989     -0.005198
2.15548      3.73239      6.08216         0.000340     -0.003434      0.001465
5.02962      3.73352      2.03227         0.002750     -0.000539      0.136157
7.89953      3.72940     10.10315        -0.002914     -0.000354     -0.002910
5.02962      8.71156      2.03227         0.002029      0.000647      0.137935
2.15482      8.71344      6.07920         0.002072     -0.000834      0.000036
5.74520      0.00000     10.10406         0.002431     -0.000000     -0.004342
0.00201      4.97803      6.07921        -0.005421     -0.000000     -0.001378
2.87407      4.97803      2.03227         0.000308     -0.000000      0.148213
5.75563      4.97803     10.13964        -0.000701     -0.000000     -0.000801
2.87407      0.00000      2.03227         0.001600     -0.000000      0.138840
-0.00002      0.00000      6.08109         0.002709     -0.000000      0.003733
7.18561      0.00000      8.09852        -0.000994     -0.000000     -0.004424
1.43703      4.97803      4.06455         0.006557     -0.000000     -0.149582
7.17706      4.97803      8.10720         0.002247     -0.000000      0.001454
1.43703      0.00000      4.06455        -0.005464     -0.000000     -0.173543
5.02830      1.24455      8.09644         0.003417     -0.000440     -0.001164
7.90369      6.22254      4.06455        -0.002700     -0.000057     -0.129520
5.02851      6.22269      8.10493        -0.000364     -0.001630      0.003366
7.90369      1.24451      4.06455        -0.006735     -0.001458     -0.141133
5.02830      8.71151      8.09644         0.003417      0.000440     -0.001164
7.90369      3.73352      4.06455        -0.002700      0.000057     -0.129520
5.02851      3.73337      8.10493        -0.000364      0.001630      0.003366
7.90369      8.71156      4.06455        -0.006735      0.001458     -0.141133
1.43442      7.46783     10.10316        -0.001133      0.001080     -0.002521
4.30928      2.48923      6.08231         0.000271      0.000202     -0.002115
7.18517      2.48902      2.03227         0.003358      0.000381      0.136434
1.43442      2.48823     10.10316        -0.001133     -0.001080     -0.002521
7.18517      7.46705      2.03227         0.003358     -0.000381      0.136434
4.30928      7.46683      6.08231         0.000271     -0.000202     -0.002115
2.87633      7.46089      8.10617        -0.000685     -0.001623     -0.001351
5.74814      2.48902      4.06455        -0.004019      0.004539     -0.131441
2.87633      2.49517      8.10617        -0.000685      0.001623     -0.001351
5.74814      7.46705      4.06455        -0.004019     -0.004539     -0.131441
0.72075      8.70947      8.09788         0.001548      0.006466     -0.003401
3.59259      3.73352      4.06455         0.006458      0.007930     -0.123700
0.71476      3.73418      8.09646        -0.001483      0.003215     -0.001794
3.59259      8.71156      4.06455        -0.001144     -0.003015     -0.132281
0.71476      6.22188      8.09646        -0.001483     -0.003215     -0.001794
3.59259      1.24451      4.06455        -0.001144      0.003015     -0.132281
0.72075      1.24659      8.09788         0.001548     -0.006466     -0.003401
3.59259      6.22254      4.06455         0.006458     -0.007930     -0.123700
7.18520      7.46834      8.09720        -0.004080      0.001017     -0.002777
1.43703      2.48902      4.06455         0.001310      0.007053     -0.129813
7.18520      2.48773      8.09720        -0.004080     -0.001017     -0.002777
1.43703      7.46705      4.06455         0.001310     -0.007053     -0.129813
-0.00017      7.46761      6.08018        -0.001425     -0.005352      0.000549
2.87407      2.48902      2.03227         0.002175     -0.001577      0.136891
5.75452      2.47433     10.10187        -0.002872     -0.000250     -0.002174
-0.00017      2.48845      6.08018        -0.001425      0.005352      0.000549
5.75452      7.48173     10.10187        -0.002872      0.000250     -0.002174
2.87407      7.46705      2.03227         0.002175      0.001577      0.136891
6.46653      8.71190      6.08013        -0.004642     -0.003994      0.002408
0.71852      3.73352      2.03227        -0.000058     -0.002063      0.137522
3.58369      3.72358     10.13958        -0.001025      0.001623      0.000309
6.46680      3.73479      6.08273         0.004144     -0.001263     -0.002424
3.59040      8.71253     10.10237        -0.000857     -0.001599     -0.000389
0.71852      8.71156      2.03227         0.002521     -0.000819      0.144634
6.46680      6.22127      6.08273         0.004144      0.001263     -0.002424
0.71852      1.24451      2.03227         0.002521      0.000819      0.144634
3.59040      1.24353     10.10237        -0.000857      0.001599     -0.000389
6.46653      1.24417      6.08013        -0.004642      0.003994      0.002408
3.58369      6.23249     10.13958        -0.001025     -0.001623      0.000309
0.71852      6.22254      2.03227        -0.000058      0.002063      0.137522
4.30752      4.97803     11.03243         0.003525     -0.000000     -0.003531
