Ni  H                                   
   1.00000000000000     
     8.6222037999999994    0.0000000000000000    0.0000000000000000
     0.0000000000000000    9.9560633000000003    0.0000000000000000
     0.0000000000000000    0.0000000000000000   24.1936378000000012
   Ni   H 
    80     1
Cartesian
2.88776      4.97803      8.16148        -0.072557      0.000000     -0.067077
5.74814      4.97803      4.06455        -0.022325      0.000000     -0.064396
5.74814      0.00000      4.06455         0.003684      0.000000     -0.143182
2.87651      0.00000      8.10074         0.030982      0.000000      0.021744
1.43684      0.00000     10.10415         0.005770      0.000000      0.009178
4.31018      4.97803      6.09986        -0.000675      0.000000      0.099806
7.18517      4.97803      2.03227         0.005134      0.000000      0.133640
1.42828      4.97803     10.10701        -0.104055      0.000000      0.076327
7.18517      0.00000      2.03227         0.000330      0.000000      0.142071
4.31216      0.00000      6.07942        -0.005112      0.000000      0.015245
7.90400      1.24236     10.10294         0.002472      0.004096     -0.006374
2.15838      6.22232      6.09434        -0.004995     -0.024456      0.027786
5.02962      6.22254      2.03227         0.003160      0.000808      0.137405
7.89244      6.22566     10.11095         0.086704      0.035476      0.011237
5.02962      1.24451      2.03227         0.001528     -0.000341      0.138442
2.15881      1.24680      6.08840         0.019661      0.008269     -0.001560
7.90400      8.71370     10.10294         0.002472     -0.004096     -0.006374
2.15838      3.73374      6.09434        -0.004995      0.024456      0.027786
5.02962      3.73352      2.03227         0.003160     -0.000808      0.137405
7.89244      3.73040     10.11095         0.086704     -0.035476      0.011237
5.02962      8.71156      2.03227         0.001528      0.000341      0.138442
2.15881      8.70927      6.08840         0.019661     -0.008269     -0.001560
5.74331      0.00000     10.10233         0.015964      0.000000     -0.013163
-0.00367      4.97803      6.08771        -0.022023      0.000000     -0.015868
2.87407      4.97803      2.03227         0.001245      0.000000      0.151218
5.77936      4.97803     10.25618        -0.394497      0.000000     -0.182334
2.87407      0.00000      2.03227        -0.001658      0.000000      0.141084
0.00265      0.00000      6.08193         0.011049      0.000000      0.016173
7.18718      0.00000      8.09665         0.013676      0.000000     -0.002372
1.43703      4.97803      4.06455         0.003514      0.000000     -0.087405
7.14760      4.97803      8.14330         0.110591      0.000000     -0.101941
1.43703      0.00000      4.06455         0.014940      0.000000     -0.132400
5.02832      1.24695      8.09632         0.014201      0.000455      0.022122
7.90369      6.22254      4.06455        -0.014230     -0.006279     -0.098114
5.02119      6.20862      8.16078         0.020322      0.050218     -0.067009
7.90369      1.24451      4.06455        -0.006893     -0.002658     -0.141050
5.02832      8.70911      8.09632         0.014201     -0.000455      0.022122
7.90369      3.73352      4.06455        -0.014230      0.006279     -0.098114
5.02119      3.74744      8.16078         0.020322     -0.050218     -0.067009
7.90369      8.71156      4.06455        -0.006893      0.002658     -0.141050
1.43951      7.45956     10.11077        -0.087363      0.050264      0.015119
4.30909      2.49319      6.09370         0.012410      0.023952      0.020611
7.18517      2.48902      2.03227         0.003924      0.002791      0.137580
1.43951      2.49651     10.11077        -0.087363     -0.050264      0.015119
7.18517      7.46705      2.03227         0.003924     -0.002791      0.137580
4.30909      7.46287      6.09370         0.012410     -0.023952      0.020611
2.89025      7.43439      8.14185        -0.061646      0.101051     -0.093804
5.74814      2.48902      4.06455        -0.011103      0.017059     -0.095374
2.89025      2.52167      8.14185        -0.061646     -0.101051     -0.093804
5.74814      7.46705      4.06455        -0.011103     -0.017059     -0.095374
0.72836      8.70433      8.10010        -0.006583      0.001204      0.006692
3.59259      3.73352      4.06455         0.008951      0.015830     -0.061173
0.70879      3.74010      8.09734        -0.007666     -0.009814      0.038217
3.59259      8.71156      4.06455         0.002147     -0.017839     -0.099299
0.70879      6.21596      8.09734        -0.007666      0.009814      0.038217
3.59259      1.24451      4.06455         0.002147      0.017839     -0.099299
0.72836      1.25173      8.10010        -0.006583     -0.001204      0.006692
3.59259      6.22254      4.06455         0.008951     -0.015830     -0.061173
7.18319      7.46804      8.09593        -0.006785      0.003017      0.024536
1.43703      2.48902      4.06455         0.014602      0.016221     -0.095630
7.18319      2.48803      8.09593        -0.006785     -0.003017      0.024536
1.43703      7.46705      4.06455         0.014602     -0.016221     -0.095630
0.00002      7.46870      6.07937         0.002841     -0.020143      0.016384
2.87407      2.48902      2.03227         0.000404     -0.004105      0.140917
5.74840      2.48468     10.10813         0.050523     -0.087288      0.063789
0.00002      2.48736      6.07937         0.002841      0.020143      0.016384
5.74840      7.47139     10.10813         0.050523      0.087288      0.063789
2.87407      7.46705      2.03227         0.000404      0.004105      0.140917
6.46618      8.71022      6.08021        -0.001321      0.008623     -0.003969
0.71852      3.73352      2.03227         0.000956     -0.002937      0.140170
3.57323      3.70426     10.25758         0.195344      0.345719     -0.188407
6.46381      3.73750      6.09340        -0.022986     -0.004733      0.024472
3.59438      8.70546     10.11086        -0.009073      0.093403      0.011847
0.71852      8.71156      2.03227         0.002001     -0.000466      0.147467
6.46381      6.21857      6.09340        -0.022986      0.004733      0.024472
0.71852      1.24451      2.03227         0.002001      0.000466      0.147467
3.59438      1.25060     10.11086        -0.009073     -0.093403      0.011847
6.46618      1.24584      6.08021        -0.001321     -0.008623     -0.003969
3.57323      6.25180     10.25758         0.195344     -0.345719     -0.188407
0.71852      6.22254      2.03227         0.000956      0.002937      0.140170
4.30920      4.97803     11.19628         0.003012      0.000000     -0.342410
