Ni  H                                   
   1.00000000000000     
     8.6222037999999994    0.0000000000000000    0.0000000000000000
     0.0000000000000000    9.9560633000000003    0.0000000000000000
     0.0000000000000000    0.0000000000000000   24.1936378000000012
   Ni   H 
    80     1
Cartesian
2.88331      4.97803      8.12450         0.029585      0.000000      0.261272
5.74814      4.97803      4.06455        -0.012234      0.000000     -0.128583
5.74814      0.00000      4.06455         0.000835      0.000000     -0.137536
2.87361      0.00000      8.09531         0.022498      0.000000      0.043508
1.43295      0.00000     10.10750         0.030410      0.000000     -0.025926
4.31084      4.97803      6.08081        -0.004417      0.000000      0.148102
7.18517      4.97803      2.03227         0.003690      0.000000      0.127440
1.42635      4.97803     10.10061         0.015838      0.000000      0.048741
7.18517      0.00000      2.03227        -0.000532      0.000000      0.143917
4.31336      0.00000      6.08252        -0.009979      0.000000     -0.023819
7.90305      1.23867     10.10514         0.006118      0.031912     -0.016517
2.15302      6.22961      6.08139         0.041951     -0.060272      0.099188
5.02962      6.22254      2.03227         0.003919     -0.000221      0.132566
7.89635      6.22526     10.10266        -0.025896      0.000666      0.062768
5.02962      1.24451      2.03227         0.000939      0.000613      0.137558
2.15765      1.24381      6.08397         0.007690      0.022071      0.031475
7.90305      8.71739     10.10514         0.006118     -0.031912     -0.016517
2.15302      3.72645      6.08139         0.041951      0.060272      0.099188
5.02962      3.73352      2.03227         0.003919      0.000221      0.132566
7.89635      3.73080     10.10266        -0.025896     -0.000666      0.062768
5.02962      8.71156      2.03227         0.000939     -0.000613      0.137558
2.15765      8.71225      6.08397         0.007690     -0.022071      0.031475
5.74734      0.00000     10.10500        -0.031377      0.000000     -0.019595
-0.00129      4.97803      6.08336        -0.016517      0.000000      0.031597
2.87407      4.97803      2.03227         0.002074      0.000000      0.146451
5.72803      4.97803     10.34098         0.375378      0.000000     -0.752750
2.87407      0.00000      2.03227         0.002991      0.000000      0.140357
0.00182      0.00000      6.08360         0.006170      0.000000     -0.013366
7.18469      0.00000      8.09770         0.018582      0.000000     -0.006526
1.43703      4.97803      4.06455         0.002584      0.000000     -0.130516
7.14522      4.97803      8.14725         0.037497      0.000000     -0.052255
1.43703      0.00000      4.06455         0.002896      0.000000     -0.151253
5.02826      1.24541      8.09701         0.002152      0.012031     -0.003699
7.90369      6.22254      4.06455         0.005485     -0.001677     -0.129053
5.02524      6.21478      8.12434        -0.027768     -0.041610      0.255208
7.90369      1.24451      4.06455        -0.004627     -0.000912     -0.134224
5.02826      8.71065      8.09701         0.002152     -0.012031     -0.003699
7.90369      3.73352      4.06455         0.005485      0.001677     -0.129053
5.02524      3.74128      8.12434        -0.027768      0.041610      0.255208
7.90369      8.71156      4.06455        -0.004627      0.000912     -0.134224
1.43890      7.46754     10.10318         0.000848     -0.060999      0.057007
4.30563      2.48579      6.08033         0.029924      0.058644      0.103107
7.18517      2.48902      2.03227         0.003190      0.002523      0.136769
1.43890      2.48853     10.10318         0.000848      0.060999      0.057007
7.18517      7.46705      2.03227         0.003190     -0.002523      0.136769
4.30563      7.47027      6.08033         0.029924     -0.058644      0.103107
2.89262      7.43315      8.14609        -0.026120      0.026685     -0.053588
5.74814      2.48902      4.06455        -0.003968      0.005483     -0.126627
2.89262      2.52291      8.14609        -0.026120     -0.026685     -0.053588
5.74814      7.46705      4.06455        -0.003968     -0.005483     -0.126627
0.72436      8.70636      8.09676         0.027208     -0.012906      0.027286
3.59259      3.73352      4.06455         0.004214      0.008131     -0.124063
0.71262      3.73865      8.09479        -0.026042      0.009110      0.023064
3.59259      8.71156      4.06455        -0.003877      0.004075     -0.128439
0.71262      6.21741      8.09479        -0.026042     -0.009110      0.023064
3.59259      1.24451      4.06455        -0.003877     -0.004075     -0.128439
0.72436      1.24970      8.09676         0.027208      0.012906      0.027286
3.59259      6.22254      4.06455         0.004214     -0.008131     -0.124063
7.18383      7.46679      8.09659        -0.004273      0.009436     -0.002525
1.43703      2.48902      4.06455        -0.000172     -0.001530     -0.124088
7.18383      2.48927      8.09659        -0.004273     -0.009436     -0.002525
1.43703      7.46705      4.06455        -0.000172      0.001530     -0.124088
-0.00059      7.46682      6.08232         0.005023      0.014057     -0.022531
2.87407      2.48902      2.03227         0.001297     -0.002230      0.137117
5.75155      2.48034     10.10000        -0.025381      0.034913      0.062954
-0.00059      2.48924      6.08232         0.005023     -0.014057     -0.022531
5.75155      7.47572     10.10000        -0.025381     -0.034913      0.062954
2.87407      7.46705      2.03227         0.001297      0.002230      0.137117
6.46730      8.71152      6.08095        -0.008730     -0.009760     -0.005116
0.71852      3.73352      2.03227        -0.001347     -0.002565      0.138947
3.59852      3.74774     10.34152        -0.185913     -0.317271     -0.745172
6.47240      3.73662      6.08047        -0.069113      0.004656      0.099310
3.58984      8.70796     10.10268         0.033683     -0.016010      0.062255
0.71852      8.71156      2.03227         0.002797     -0.003063      0.149362
6.47240      6.21944      6.08047        -0.069113     -0.004656      0.099310
0.71852      1.24451      2.03227         0.002797      0.003063      0.149362
3.58984      1.24811     10.10268         0.033683      0.016010      0.062255
6.46730      1.24454      6.08095        -0.008730      0.009760     -0.005116
3.59852      6.20833     10.34152        -0.185913      0.317271     -0.745172
0.71852      6.22254      2.03227        -0.001347      0.002565      0.138947
4.30951      4.97803     11.23432        -0.002395      0.000000      0.150144
