Ni  H                                   
   1.00000000000000     
     8.6222037999999994    0.0000000000000000    0.0000000000000000
     0.0000000000000000    9.9560633000000003    0.0000000000000000
     0.0000000000000000    0.0000000000000000   24.1936378000000012
   Ni   H 
    80     1
Cartesian
2.87120      4.97803      8.10937        -0.002637      0.000000     -0.008233
5.74814      4.97803      4.06455        -0.015741      0.000000     -0.111757
5.74814      0.00000      4.06455         0.003931      0.000000     -0.132334
2.87649      0.00000      8.09844        -0.011560      0.000000     -0.001355
1.43756      0.00000     10.10729        -0.003134      0.000000     -0.003532
4.30935      4.97803      6.08796         0.003780      0.000000     -0.009395
7.18517      4.97803      2.03227         0.002434      0.000000      0.134559
1.41715      4.97803     10.10764        -0.004847      0.000000     -0.009574
7.18517      0.00000      2.03227         0.000260      0.000000      0.139574
4.31217      0.00000      6.08236        -0.002925      0.000000     -0.009170
7.90533      1.24186     10.10796        -0.000492     -0.002677     -0.004223
2.15529      6.22455      6.08522        -0.005724     -0.009906     -0.007120
5.02962      6.22254      2.03227         0.002925      0.000437      0.136859
7.89894      6.22607     10.10925         0.001077      0.004324     -0.009750
5.02962      1.24451      2.03227         0.001774     -0.000746      0.138459
2.15576      1.24321      6.08043        -0.005744     -0.008123     -0.001423
7.90533      8.71420     10.10796        -0.000492      0.002677     -0.004223
2.15529      3.73152      6.08522        -0.005724      0.009906     -0.007120
5.02962      3.73352      2.03227         0.002925     -0.000437      0.136859
7.89894      3.72999     10.10925         0.001077     -0.004324     -0.009750
5.02962      8.71156      2.03227         0.001774      0.000746      0.138459
2.15576      8.71286      6.08043        -0.005744      0.008123     -0.001423
5.74781      0.00000     10.10744        -0.007004      0.000000     -0.005019
0.00013      4.97803      6.08185         0.014343      0.000000     -0.002447
2.87407      4.97803      2.03227         0.000397      0.000000      0.149105
5.75516      4.97803     10.14194        -0.006009      0.000000      0.004923
2.87407      0.00000      2.03227         0.001613      0.000000      0.139398
-0.00020      0.00000      6.08384         0.008630      0.000000     -0.013273
7.18672      0.00000      8.10088        -0.001302      0.000000     -0.005159
1.43703      4.97803      4.06455         0.005941      0.000000     -0.130740
7.17704      4.97803      8.11266        -0.004086      0.000000     -0.014243
1.43703      0.00000      4.06455        -0.006777      0.000000     -0.162041
5.02986      1.24409      8.09976        -0.002633      0.008628     -0.005603
7.90369      6.22254      4.06455        -0.002294     -0.000062     -0.119867
5.02676      6.22186      8.10788         0.006823      0.006801     -0.003256
7.90369      1.24451      4.06455        -0.005197     -0.000525     -0.126765
5.02986      8.71197      8.09976        -0.002633     -0.008628     -0.005603
7.90369      3.73352      4.06455        -0.002294      0.000062     -0.119867
5.02676      3.73420      8.10788         0.006823     -0.006801     -0.003256
7.90369      8.71156      4.06455        -0.005197      0.000525     -0.126765
1.43464      7.46881     10.10723        -0.003614     -0.003348     -0.005427
4.30898      2.48956      6.08376         0.006938     -0.002470      0.000228
7.18517      2.48902      2.03227         0.003418      0.000251      0.137060
1.43464      2.48726     10.10723        -0.003614      0.003348     -0.005427
7.18517      7.46705      2.03227         0.003418     -0.000251      0.137060
4.30898      7.46650      6.08376         0.006938      0.002470      0.000228
2.87590      7.46150      8.10946         0.002791     -0.001996     -0.006524
5.74814      2.48902      4.06455        -0.003170      0.005106     -0.121039
2.87590      2.49456      8.10946         0.002791      0.001996     -0.006524
5.74814      7.46705      4.06455        -0.003170     -0.005106     -0.121039
0.72177      8.71013      8.10005         0.000266     -0.001349     -0.004898
3.59259      3.73352      4.06455         0.004367      0.008823     -0.113038
0.71370      3.73434      8.10163         0.004265      0.003165     -0.007194
3.59259      8.71156      4.06455         0.000624     -0.001513     -0.123667
0.71370      6.22173      8.10163         0.004265     -0.003165     -0.007194
3.59259      1.24451      4.06455         0.000624      0.001513     -0.123667
0.72177      1.24594      8.10005         0.000266      0.001349     -0.004898
3.59259      6.22254      4.06455         0.004367     -0.008823     -0.113038
7.18501      7.46728      8.10073        -0.003437      0.004110     -0.005901
1.43703      2.48902      4.06455        -0.000333      0.008131     -0.118420
7.18501      2.48878      8.10073        -0.003437     -0.004110     -0.005901
1.43703      7.46705      4.06455        -0.000333     -0.008131     -0.118420
-0.00039      7.46610      6.08299         0.001216      0.007032     -0.009044
2.87407      2.48902      2.03227         0.002226     -0.001323      0.137279
5.75371      2.47507     10.10497         0.002945     -0.002826     -0.003079
-0.00039      2.48996      6.08299         0.001216     -0.007032     -0.009044
5.75371      7.48099     10.10497         0.002945      0.002826     -0.003079
2.87407      7.46705      2.03227         0.002226      0.001323      0.137279
6.46649      8.71153      6.08239        -0.000003     -0.005362     -0.006689
0.71852      3.73352      2.03227        -0.000014     -0.002098      0.138230
3.58210      3.72296     10.14275         0.007952      0.006467      0.002507
6.46713      3.73554      6.08471        -0.006966     -0.006574     -0.002460
3.59151      8.71222     10.10588        -0.000854      0.004484     -0.005212
0.71852      8.71156      2.03227         0.002372     -0.000843      0.145300
6.46713      6.22052      6.08471        -0.006966      0.006574     -0.002460
0.71852      1.24451      2.03227         0.002372      0.000843      0.145300
3.59151      1.24384     10.10588        -0.000854     -0.004484     -0.005212
6.46649      1.24453      6.08239        -0.000003      0.005362     -0.006689
3.58210      6.23310     10.14275         0.007952     -0.006467      0.002507
0.71852      6.22254      2.03227        -0.000014      0.002098      0.138230
4.30726      4.97803     11.03381         0.001680      0.000000      0.000065
