Ni  H                                   
   1.00000000000000     
     8.6222037999999994    0.0000000000000000    0.0000000000000000
     0.0000000000000000    9.9560633000000003    0.0000000000000000
     0.0000000000000000    0.0000000000000000   24.1936378000000012
   Ni   H 
    80     1
Cartesian
2.87090      4.97803      8.11876        -0.009279     -0.000000     -0.022927
5.74814      4.97803      4.06455        -0.015945     -0.000000     -0.099343
5.74814      0.00000      4.06455         0.007843     -0.000000     -0.127266
2.87627      0.00000      8.10131         0.016427     -0.000000     -0.007489
1.43950      0.00000     10.10812        -0.003476     -0.000000      0.001532
4.30725      4.97803      6.08878         0.006844     -0.000000      0.025431
7.18517      4.97803      2.03227         0.002538     -0.000000      0.135579
1.41347      4.97803     10.11831         0.007841     -0.000000     -0.026128
7.18517      0.00000      2.03227        -0.000355     -0.000000      0.140003
4.31514      0.00000      6.08330        -0.012489     -0.000000      0.001841
7.90882      1.23998     10.10856        -0.020181      0.000254     -0.005261
2.15248      6.22443      6.08790         0.012934     -0.007922      0.001998
5.02962      6.22254      2.03227         0.003050      0.000811      0.137108
7.89526      6.22893     10.11554         0.010521     -0.021004     -0.022255
5.02962      1.24451      2.03227         0.001498     -0.000315      0.138821
2.15693      1.24236      6.08223         0.002567      0.005780     -0.007455
7.90882      8.71609     10.10856        -0.020181     -0.000254     -0.005261
2.15248      3.73164      6.08790         0.012934      0.007922      0.001998
5.02962      3.73352      2.03227         0.003050     -0.000811      0.137108
7.89526      3.72714     10.11554         0.010521      0.021004     -0.022255
5.02962      8.71156      2.03227         0.001498      0.000315      0.138821
2.15693      8.71370      6.08223         0.002567     -0.005780     -0.007455
5.74864      0.00000     10.10970         0.009582     -0.000000     -0.011271
0.00061      4.97803      6.08743        -0.008235     -0.000000     -0.026218
2.87407      4.97803      2.03227         0.000436     -0.000000      0.148993
5.75377      4.97803     10.15443         0.010540     -0.000000     -0.021246
2.87407      0.00000      2.03227         0.000504     -0.000000      0.140334
0.00441      0.00000      6.07917        -0.024077     -0.000000      0.026227
7.18828      0.00000      8.09718         0.001341     -0.000000      0.015665
1.43703      4.97803      4.06455         0.002014     -0.000000     -0.115551
7.17232      4.97803      8.11521         0.017811     -0.000000      0.015611
1.43703      0.00000      4.06455         0.005024     -0.000000     -0.169441
5.03105      1.24531      8.10368        -0.006610     -0.001656     -0.009468
7.90369      6.22254      4.06455        -0.003200     -0.005336     -0.101397
5.02602      6.22135      8.11704         0.006599      0.009023     -0.022331
7.90369      1.24451      4.06455        -0.007100      0.002713     -0.132113
5.03105      8.71075      8.10368        -0.006610      0.001656     -0.009468
7.90369      3.73352      4.06455        -0.003200      0.005336     -0.101397
5.02602      3.73472      8.11704         0.006599     -0.009023     -0.022331
7.90369      8.71156      4.06455        -0.007100     -0.002713     -0.132113
1.43282      7.46784     10.11294         0.017491      0.003354     -0.021654
4.30860      2.48830      6.08697         0.006283      0.015507     -0.005683
7.18517      2.48902      2.03227         0.003308      0.000117      0.137370
1.43282      2.48822     10.11294         0.017491     -0.003354     -0.021654
7.18517      7.46705      2.03227         0.003308     -0.000117      0.137370
4.30860      7.46776      6.08697         0.006283     -0.015507     -0.005683
2.87756      7.45872      8.11301        -0.010283      0.012107      0.014154
5.74814      2.48902      4.06455        -0.007123      0.007677     -0.112442
2.87756      2.49735      8.11301        -0.010283     -0.012107      0.014154
5.74814      7.46705      4.06455        -0.007123     -0.007677     -0.112442
0.72405      8.70983      8.10023        -0.008298     -0.006498     -0.001000
3.59259      3.73352      4.06455         0.001242      0.005186     -0.097928
0.71179      3.73578      8.10866         0.006122     -0.008402     -0.019641
3.59259      8.71156      4.06455         0.002597     -0.001970     -0.114865
0.71179      6.22029      8.10866         0.006122      0.008402     -0.019641
3.59259      1.24451      4.06455         0.002597      0.001970     -0.114865
0.72405      1.24624      8.10023        -0.008298      0.006498     -0.001000
3.59259      6.22254      4.06455         0.001242     -0.005186     -0.097928
7.18429      7.46856      8.10470         0.000024     -0.008595     -0.010183
1.43703      2.48902      4.06455         0.001431      0.007495     -0.108815
7.18429      2.48750      8.10470         0.000024      0.008595     -0.010183
1.43703      7.46705      4.06455         0.001431     -0.007495     -0.108815
-0.00081      7.46698      6.08394         0.003423     -0.006856      0.001888
2.87407      2.48902      2.03227         0.002306     -0.000833      0.138113
5.75458      2.47346     10.11479        -0.001687      0.000438     -0.026597
-0.00081      2.48908      6.08394         0.003423      0.006856      0.001888
5.75458      7.48261     10.11479        -0.001687     -0.000438     -0.026597
2.87407      7.46705      2.03227         0.002306      0.000833      0.138113
6.46758      8.70943      6.08279        -0.002484      0.016204     -0.005086
0.71852      3.73352      2.03227         0.000277     -0.001761      0.138933
3.58246      3.72354     10.15527        -0.005013     -0.008267     -0.022170
6.46524      3.73490      6.08727        -0.002420      0.004787     -0.000886
3.59349      8.71406     10.11126        -0.013693     -0.018309     -0.019913
0.71852      8.71156      2.03227         0.002337     -0.001151      0.145468
6.46524      6.22117      6.08727        -0.002420     -0.004787     -0.000886
0.71852      1.24451      2.03227         0.002337      0.001151      0.145468
3.59349      1.24200     10.11126        -0.013693      0.018309     -0.019913
6.46758      1.24663      6.08279        -0.002484     -0.016204     -0.005086
3.58246      6.23252     10.15527        -0.005013      0.008267     -0.022170
0.71852      6.22254      2.03227         0.000277      0.001761      0.138933
4.30951      4.97803     11.04672        -0.006730     -0.000000      0.002245
